                   x                  sxy                  sxz                  syz                  sxx                  syy                  szz
 l=         100
                   1     0.00074057117808     0.00015223971292     0.00004283057192     0.38027114109086     0.14496759688009     0.47476126202904
                   2    -0.00054953894632    -0.00145692056586    -0.00062745950876     0.40549441032129     0.12912984579060     0.46537574388810
                   3    -0.00001729290387     0.00055875352654    -0.00054037305796     0.39069392847063     0.14157653316472     0.46772953836465
                   4    -0.00030336642773    -0.00013223432681     0.00006620405022     0.39280582331790     0.14044751790182     0.46674665878028
                   5     0.00009531371564     0.00105314814073    -0.00006102017242     0.38637176928130     0.14631771624373     0.46731051447497
                   6     0.00000187995407    -0.00031495292048    -0.00025136974242     0.38695453869879     0.14599723186082     0.46704822944040
                   7     0.00037091074477    -0.00044871362624    -0.00088968352742     0.38908230895361     0.14520694611407     0.46571074493232
                   8    -0.00065732802822     0.00024843787028    -0.00028279685971     0.39057413278553     0.14411623588537     0.46530963132910
                   9     0.00001145532044     0.00037176063204     0.00006513648768     0.38359442032414     0.15077122482957     0.46563435484629
                  10    -0.00040333670739    -0.00118725881430    -0.00076626723288     0.38136290844004     0.15255372966643     0.46608336189354
                  11     0.00024509178954     0.00074807257365     0.00009656903712     0.40336548066853     0.12773960306921     0.46889491626225
                  12    -0.00041544652181     0.00007562142407    -0.00010061069282     0.39847327783982     0.13109029512185     0.47043642703832
                  13     0.00024283304799     0.00031060291349    -0.00041117975814     0.40546297727315     0.12403991655021     0.47049710617663
                  14    -0.00013675432628    -0.00052712789678     0.00025270638231     0.40655640959762     0.12351652796502     0.46992706243736
                  15     0.00008221396683     0.00022306449790    -0.00055283851321     0.39552557579708     0.13483999838754     0.46963442581538
                  16    -0.00044576117536    -0.00021642302155    -0.00003643002032     0.39523201295769     0.13522270485810     0.46954528218420
                  17     0.00005652335374    -0.00009461822381     0.00030761407625     0.40952122566573     0.11800602356112     0.47247275077315
                  18    -0.00047762785071     0.00094214515862    -0.00009054396772     0.41065106992951     0.11784309654417     0.47150583352632
                  19     0.00029922036056    -0.00026863363298    -0.00016873790690     0.38310820578356     0.15034073201870     0.46655106219774
                  20    -0.00081065922312     0.00005129441755     0.00036840769657     0.38822138283837     0.14720873658922     0.46456988057241
                  21     0.00039259845570     0.00005025134025    -0.00015675585614     0.38342491848658     0.15104212275447     0.46553295875895
                  22    -0.00027388604206    -0.00074756733612    -0.00008565086073     0.38337076335780     0.15142411616759     0.46520512047462
                  23    -0.00003380924857    -0.00055618569900     0.00078725360655     0.39015935222328     0.14466859255839     0.46517205521834
                  24    -0.00035576649461     0.00017468722382    -0.00020235703174     0.38915859884129     0.14537067664284     0.46547072451587
                  25     0.00063575195954    -0.00176694848142     0.00009269600216     0.39017929937086     0.14371805568625     0.46610264494289
                  26    -0.00075048102008     0.00162150434186     0.00109799316491     0.39122145294945     0.14349783232484     0.46528071472571
                  27     0.00055636430883     0.00135704813871    -0.00024250350423     0.39619291128722     0.13669965686348     0.46710743184930
                  28    -0.00003077178132     0.00014539117555     0.00012029157269     0.39226465002277     0.14011297015441     0.46762237982282
                  29     0.00024913782136    -0.00021627554622    -0.00019552870932     0.40134231408462     0.12933040064485     0.46932728527052
                  30    -0.00033255430828     0.00069066189504    -0.00014629108861     0.40200881966521     0.12921626426748     0.46877491606731
                  31     0.00066822513948    -0.00009584248120     0.00001216375232     0.37831494395355     0.15598138563781     0.46570367040864
                  32    -0.00027155001935    -0.00093742909279    -0.00012624278004     0.38270943843846     0.15276293169288     0.46452762986867
                  33     0.00064838708020     0.00018813509569     0.00048832543291     0.38308577284267     0.15110505138346     0.46580917577387
                  34    -0.00040233818811     0.00039140791542     0.00035829376038     0.38323930318096     0.15018915558346     0.46657154123558
                  35    -0.00001698129330    -0.00074085038410    -0.00030695012925     0.38251589957097     0.15230106193702     0.46518303849201
                  36    -0.00013193050626    -0.00011159801656     0.00004261911112     0.38052115579961     0.15361839726180     0.46586044693858
                  37     0.00017105493984     0.00020429189445    -0.00018807863463     0.38687366772834     0.14736361018310     0.46576272208856
                  38    -0.00026524498941    -0.00020805299578    -0.00020289331125     0.38837210109995     0.14636691597970     0.46526098292035
                  39    -0.00020920455805    -0.00204577500454     0.00049184473068     0.37546108939551     0.16147649891024     0.46306241169424
                  40    -0.00016754908689     0.00169613090186    -0.00042928903630     0.37462438965591     0.16175183511009     0.46362377523399
                  41     0.00004813861192    -0.00102955954161    -0.00049436041318     0.39347389656646     0.13978320178357     0.46674290164997
                  42    -0.00078073294214     0.00007840428508     0.00091973805522     0.39123715284506     0.14116951675851     0.46759333039643
                  43     0.00016163733254     0.00044786316288    -0.00049154085405     0.38379919423594     0.14958513539307     0.46661567037100
                  44    -0.00003112975784    -0.00073315712597    -0.00029724574223     0.38694942275867     0.14755926358344     0.46549131365789
                  45     0.00043082125547    -0.00053448796399     0.00044603366245     0.37483480872142     0.16022071577535     0.46494447550323
                  46    -0.00024012720751     0.00029069656473     0.00034564797556     0.37587103009584     0.15971229961235     0.46441667029181
                  47     0.00002642904281     0.00065516090202    -0.00004200278308     0.37999325023286     0.15602622144916     0.46398052831798
                  48    -0.00050947808065    -0.00028622091822     0.00016971359320     0.38116706806068     0.15558289544358     0.46325003649574
                  49     0.00029837267525     0.00082211522021    -0.00028347265088     0.37070283071292     0.16642734110929     0.46286982817779
                  50     0.00017559719250     0.00009717777328     0.00002462636473     0.37387203436127     0.16435313406449     0.46177483157424
                  51     0.00005093382749    -0.00093326811243    -0.00044610647896     0.36662357105933     0.17178119247021     0.46159523647047
                  52    -0.00003000267849     0.00159906405724    -0.00030021743145     0.36412490162622     0.17448073894220     0.46139435943157
                  53     0.00005158251089    -0.00236677309158     0.00020360654749     0.38508455564783     0.14994238439594     0.46497305995624
                  54    -0.00011800421778     0.00183520921845     0.00043978252877     0.38533943897872     0.15066884766081     0.46399171336047
                  55     0.00001662107980    -0.00069225057515     0.00044252468413     0.38650650877839     0.14758746021416     0.46590603100744
                  56    -0.00067251268721     0.00091792537782    -0.00022054593901     0.38787177936387     0.14697616535860     0.46515205527753
                  57     0.00078159852977     0.00053494464162     0.00073079670207     0.36739289793436     0.17267984244170     0.45992725962393
                  58    -0.00000954002758    -0.00007143055202    -0.00003063130429     0.37039691317247     0.17056346078602     0.45903962604151
                  59    -0.00005853242100    -0.00109829962280     0.00001357623708     0.36611622141122     0.17374597636402     0.46013780222477
                  60    -0.00087074052136     0.00068290796526     0.00009712841019     0.36464852426869     0.17507372248369     0.46027775324762
                  61     0.00025035852013     0.00072111274691    -0.00036763129569     0.37886722170727     0.15804838036872     0.46308439792400
                  62    -0.00079158537680    -0.00196064876228     0.00065160889021     0.37305644287454     0.16309744228783     0.46384611483764
                  63     0.00018633742820     0.00085134073283     0.00025083477084     0.38272950463489     0.15327671100634     0.46399378435877
                  64    -0.00068485970375    -0.00065453929275    -0.00013423454236     0.38194441186112     0.15386687573973     0.46418871239915
                  65    -0.00028334649205    -0.00021610753619    -0.00005085601393     0.39192832071839     0.14165172271497     0.46641995656664
                  66     0.00000304815868     0.00055005326100     0.00054065873821     0.38504531310115     0.14695619235233     0.46799849454652
                  67     0.00013077551596     0.00000763564583     0.00035581947343     0.41188191767251     0.11717313978673     0.47094494254076
                  68    -0.00023961145018    -0.00025518052684    -0.00004470485327     0.40905576990287     0.11884459347208     0.47209963662505
                  69     0.00012633643823     0.00037651306597     0.00024180987376     0.40354183889771     0.12551474164816     0.47094341945412
                  70    -0.00071752709944     0.00023240217339    -0.00016662186999     0.40319594862415     0.12604318862108     0.47076086275477
                  71     0.00029225734274    -0.00038028058145    -0.00061996708697     0.41450773898033     0.11182504654540     0.47366721447428
                  72    -0.00043132047582    -0.00022094161911    -0.00050632248920     0.41272786403592     0.11311585723361     0.47415627873048
                  73     0.00042312684996     0.00102054410951    -0.00004500785867     0.42132232751733     0.10287576122963     0.47580191125304
                  74    -0.00047241419225     0.00035199311511    -0.00030378543634     0.42300800265579     0.10223101884898     0.47476097849523
                  75     0.00050654975226     0.00107306809278     0.00017452257047     0.40427440081106     0.12460072777746     0.47112487141148
                  76    -0.00049435113245    -0.00139111292110     0.00025030866790     0.40491306032253     0.12414146703851     0.47094547263896
                  77     0.00051226920479     0.00089550127089    -0.00012565893432     0.41220963879569     0.11499423726433     0.47279612393998
                  78    -0.00012732097945    -0.00003716292738     0.00036343264643     0.41281343009380     0.11521799760303     0.47196857230317
                  79     0.00026775179554    -0.00151062689147    -0.00035273835541     0.39799418409612     0.13201074399422     0.46999507190966
                  80    -0.00084893501998    -0.00021906410760    -0.00016535090037     0.40144891508980     0.12964463216107     0.46890645274913
                  81    -0.00072355542868     0.00016802105119     0.00012537619208     0.39808625185874     0.13357723240258     0.46833651573868
                  82    -0.00072976842662     0.00069947439656    -0.00043780120761     0.39754042726131     0.13430633777095     0.46815323496774
                  83    -0.00046119295497    -0.00050098561655     0.00033563871435     0.40454019436109     0.12578990299667     0.46966990264224
                  84    -0.00043594602923     0.00018905368094    -0.00065417073200     0.40037834554189     0.12843082334105     0.47119083111707
                  85     0.00010181226762    -0.00079536575094     0.00039661666506     0.41984398852357     0.10658896673795     0.47356704473848
                  86    -0.00040054484095     0.00106763056652    -0.00026556025668     0.41460935750479     0.10978998650032     0.47560065599489
                  87     0.00018973736464     0.00005448115190     0.00017764659378     0.43713510118827     0.08369026600839     0.47917463280334
                  88    -0.00071549769318    -0.00030629087778     0.00013312124029     0.43513041422030     0.08559858097979     0.47927100479991
                  89    -0.00000766749695    -0.00023179912550    -0.00055995962990     0.43901928091960     0.08007434527383     0.48090637380657
                  90    -0.00095555643550    -0.00030552950431    -0.00068459887808     0.43892113615135     0.08139868313057     0.47968018071808
                  91     0.00022156562153    -0.00027751442758    -0.00000524814621     0.43122635112972     0.08993038107174     0.47884326779854
                  92    -0.00082042021935     0.00022502591819     0.00005068704719     0.43323061985170     0.08912959534706     0.47763978480124
                  93     0.00057265641308     0.00091116113434     0.00004577878905     0.41917554389146     0.10550118571869     0.47532327038985
                  94    -0.00068698020595    -0.00178547773882     0.00045692777409     0.42162306105589     0.10395102069478     0.47442591824933
                  95     0.00079450803321     0.00110433864259    -0.00010332314681     0.41641238860963     0.10928910352173     0.47429850786865
                  96    -0.00068223220986    -0.00024239901435    -0.00009262464404     0.41820281029543     0.10829132142366     0.47350586828091
                  97     0.00051756549884    -0.00105504094381    -0.00006386220473     0.41582388388534     0.11065931429490     0.47351680181976
                  98    -0.00031839770722     0.00033946362176     0.00041782098241     0.41422787276871     0.11239000951500     0.47338211771629
                  99    -0.00015680960369     0.00053286895194     0.00001529133649     0.42171267631620     0.10301546734586     0.47527185633794
                 100    -0.00038175950357     0.00000944331326     0.00002358294043     0.41971941348027     0.10472928910496     0.47555129741477
                 101     0.00012736429113     0.00049832055354     0.00009850541127     0.43143658157971     0.09038806993647     0.47817534848382
                 102    -0.00120703549117    -0.00053490414813     0.00032778243108     0.42939467160932     0.09194646242255     0.47865886596812
                 103     0.00001724779853    -0.00024488709486     0.00020042689729     0.43924395844469     0.08054764275323     0.48020839880208
                 104    -0.00099733534841     0.00024665553199    -0.00021735853608     0.43809571606406     0.08172897708574     0.48017530685020
                 105     0.00072439145673     0.00067412536201    -0.00013597411295     0.43504650648402     0.08468504132602     0.48026845218997
                 106    -0.00131624824063    -0.00012947425707    -0.00016672176117     0.43563283968462     0.08532357332009     0.47904358699530
                 107     0.00088865521486     0.00025839993419    -0.00030194108888     0.43302397579251     0.08725867165335     0.47971735255414
                 108    -0.00109636591488    -0.00035961623218     0.00018456862012     0.43189705569057     0.08931349826013     0.47878944604930
                 109     0.00022964327563     0.00034038420144     0.00052637653746     0.44536143770512     0.07185706346471     0.48278149883017
                 110    -0.00118748364055    -0.00030164848974     0.00039917483084     0.44538390158836     0.07293859659028     0.48167750182136
                 111     0.00020634783451     0.00021642829756     0.00005688053113     0.43778800986754     0.08097917989773     0.48123281023473
                 112    -0.00152527039417    -0.00001667238352     0.00039625809594     0.43996492493127     0.08059289771112     0.47944217735762
                 113     0.00061439007516    -0.00012048135132     0.00009301723698     0.42913564887197     0.09295044251439     0.47791390861364
                 114    -0.00160279679037    -0.00027958918143    -0.00026080079338     0.42909684198047     0.09413130651637     0.47677185150316
                 115     0.00053368603414     0.00070646087837     0.00006694043834     0.43972966644073     0.07993916517535     0.48033116838392
                 116    -0.00129868118735    -0.00082741001827     0.00025533161082     0.43852411379005     0.08184701641898     0.47962886979097
                 117     0.00043704704129    -0.00049206863843     0.00020152210378     0.43610840252142     0.08409996968649     0.47979162779210
                 118    -0.00131345035688     0.00000177694324    -0.00043805046446     0.43701155436401     0.08449638722548     0.47849205841051
                 119     0.00045379933075     0.00030802270593    -0.00068607349899     0.42456550693996     0.09780756287429     0.47762693018574
                 120    -0.00122380559341    -0.00034977667447     0.00024215035597     0.42556705355772     0.09807364741913     0.47635929902315
                 121     0.00016508651227     0.00019738779107     0.00045087603031     0.43184426908261     0.08983341490802     0.47832231600938
                 122    -0.00090176781250     0.00032142425714     0.00029713413635     0.43104910137259     0.09117768786110     0.47777321076631
                 123     0.00028676858533    -0.00091893537209    -0.00020143973783     0.44008478059990     0.07976698342838     0.48014823597172
                 124    -0.00147911724658    -0.00016196739818     0.00004584728675     0.43770327756030     0.08218149113983     0.48011523129988
                 125     0.00006107685618     0.00058465333071     0.00029980811842     0.44100986617094     0.07791559868378     0.48107453514528
                 126    -0.00201024222374    -0.00034895989246    -0.00015688378437     0.44059771805821     0.08012087129201     0.47928141064978
                 127     0.00022683923890     0.00021363823243     0.00005966216404     0.44671279924038     0.07056140156604     0.48272579919358
                 128    -0.00155952575385     0.00000207594634     0.00035266954620     0.44513782106742     0.07290716722039     0.48195501171218
                 129     0.00055244824680     0.00045051798039     0.00012136173520     0.45174188523763     0.06406606336589     0.48419205139648
                 130    -0.00174794032605    -0.00060993398840    -0.00015746980166     0.45253647484563     0.06470879194222     0.48275473321215
                 131    -0.00001495673233    -0.00047908995706    -0.00000729697815     0.43561590569368     0.08373560464243     0.48064848966389
                 132    -0.00085200851905     0.00023936398773     0.00004200965216     0.43588081278924     0.08479893253631     0.47932025467445
                 133     0.00035310121589    -0.00015191496941     0.00043884470320     0.45099901613398     0.06521728438041     0.48378369948562
                 134    -0.00164653878757     0.00057014959714     0.00012201904004     0.44944996135576     0.06739425153279     0.48315578711145
                 135     0.00021429002353     0.00031355397687     0.00039755677250     0.45980307185886     0.05429041321564     0.48590651492550
                 136    -0.00196344732298    -0.00049861043522     0.00026633059301     0.45787954057751     0.05711653501424     0.48500392440825
                 137     0.00023964766922     0.00016439268164     0.00002048961443     0.46960956180256     0.04145962790086     0.48893081029657
                 138    -0.00296607339017     0.00053117166911     0.00031013615430     0.46714099151207     0.04566921872501     0.48718978976292
                 139    -0.00003609025251    -0.00020088360268    -0.00004578785550     0.47213471796733     0.03725057516942     0.49061470686326
                 140    -0.00297862215673     0.00044873461251     0.00010472527406     0.47258236544006     0.03961390246327     0.48780373209667
                 141     0.00020254503988     0.00052095844495     0.00002495369633     0.45997416406044     0.05208631526615     0.48793952067341
                 142    -0.00293779506571    -0.00028121376535     0.00018801822085     0.46150377405342     0.05355633714973     0.48493988879684
                 143     0.00043949886302    -0.00037608122406     0.00035212657500     0.46216239814536     0.05028294550081     0.48755465635382
                 144    -0.00308339834541     0.00056883132528     0.00023204940599     0.46262329216161     0.05205767391579     0.48531903392260
                 145     0.00031112726577     0.00021132234899     0.00001635978673     0.46127757392880     0.05121248042874     0.48750994564246
                 146    -0.00286124078969     0.00017304123269    -0.00014330219807     0.46023971252523     0.05449965081188     0.48526063666289
                 147     0.00020844195576    -0.00072509163306     0.00016267453161     0.46273638866631     0.04918113077212     0.48808248056158
                 148    -0.00269861816377     0.00012416302971    -0.00019469912415     0.46260994718806     0.05178041512695     0.48560963768499
                 149     0.00019120681495     0.00010862519752    -0.00031365496991     0.46836022687385     0.04213410549722     0.48950566762893
                 150    -0.00265772081639    -0.00011195644485    -0.00019689671285     0.46772501189765     0.04542336705538     0.48685162104697
                 151     0.00020427734667    -0.00041268748208    -0.00031974778418     0.46976873113868     0.04019149491037     0.49003977395095
                 152    -0.00307287434475     0.00040306925280     0.00004128109303     0.46864057422005     0.04389726122678     0.48746216455317
                 153     0.00021050202335     0.00005273914782     0.00011933386837     0.47474062804612     0.03388083311112     0.49137853884277
                 154    -0.00316452876595    -0.00006136104600    -0.00003434265211     0.47379981152038     0.03725154420661     0.48894864427301
                 155     0.00015676279985    -0.00039097805588     0.00002740302959     0.47864808291316     0.02877942207810     0.49257249500874
                 156    -0.00365794319669     0.00048822898214    -0.00016478939898     0.47827973912692     0.03209635901845     0.48962390185463
                 157     0.00007177612580     0.00024172468286     0.00003537006931     0.48225185295491     0.02416258040949     0.49358556663561
                 158    -0.00380866552802    -0.00007944156006     0.00004989855651     0.48159570403214     0.02815426620747     0.49025002976039
                 159     0.00045589084435    -0.00009716046469     0.00003781580787     0.48418273449956     0.02147140543741     0.49434586006303
                 160    -0.00383246042927    -0.00019905126190    -0.00012171217222     0.48341428971659     0.02556533684652     0.49102037343689
                 161     0.00011994421355    -0.00010436157892    -0.00005546211186     0.49067821799141     0.01284805929800     0.49647372271059
                 162    -0.00453275508924     0.00002530516300     0.00011416375398     0.48971544293082     0.01787705397410     0.49240750309507
                 163     0.00003536420575     0.00006377822876     0.00010126389397     0.49400406940638     0.00826734081811     0.49772858977552
                 164    -0.00484965638873    -0.00009468405872    -0.00007769980606     0.49401046768422     0.01283158978761     0.49315794252817
                 165     0.00026818361622    -0.00021440083676    -0.00005272312288     0.49405372861548     0.00813015171793     0.49781611966659
                 166    -0.00464264235489     0.00010126630674    -0.00003882865090     0.49397116851245     0.01298994292657     0.49303888856098
                 167     0.00016056246823    -0.00005617556724     0.00002878786751     0.49600957565244     0.00575311393284     0.49823731041472
                 168    -0.00488211701485     0.00011097544998     0.00004543473736     0.49584708153733     0.01071006187485     0.49344285658782
                 169     0.00009752067683     0.00011552382188    -0.00002392613054     0.49373169469070     0.00848358852046     0.49778471678884
                 170    -0.00492198702344     0.00008293139769    -0.00000002372938     0.49364707068930     0.01349731151269     0.49285561779802
                 171     0.00004266593759    -0.00029931154964     0.00002704567457     0.49634398894517     0.00515108055247     0.49850493050235
                 172    -0.00506280653981     0.00015607740472     0.00010338151799     0.49599494640371     0.01028400336461     0.49372105023168
                 173     0.00005443744207    -0.00003051570688    -0.00000692699672     0.49933007007637     0.00105379495166     0.49961613497197
                 174    -0.00553597969626     0.00005685978987    -0.00004577977095     0.49926206320230     0.00659294694684     0.49414498985086
                 175     0.00014046733951    -0.00010752710058    -0.00001387621773     0.49837048945716     0.00227500285827     0.49935450768457
                 176    -0.00543631007458     0.00006872420923     0.00002430092587     0.49836321858965     0.00768185950044     0.49395492190991
                 177     0.00002844341276    -0.00009677585393     0.00004162453675     0.49946443431094     0.00079571820703     0.49973984748203
                 178    -0.00551423735949     0.00013455249056    -0.00001768591287     0.49937616373837     0.00634267036601     0.49428116589562
                 179     0.00000520508016     0.00010897379231     0.00000381715513     0.49992747578678     0.00010479571020     0.49996772850302
                 180    -0.00574424038917    -0.00005300994293    -0.00000173245371     0.49992966047768     0.00591713935595     0.49415320016637
                 181     0.00001249024204    -0.00006209132697    -0.00000416326959     0.49955867067670     0.00060370506947     0.49983762425383
                 182    -0.00561943365761    -0.00007461031557     0.00000416363066     0.49956280346411     0.00624886715723     0.49418832937866
                 183     0.00000624349636     0.00013668466537    -0.00002463039748     0.49996288260981     0.00004752321746     0.49998959417274
                 184    -0.00573014252092    -0.00007350848647    -0.00000312109863     0.49998855597170     0.00581301430327     0.49419842972503
                 185     0.00001769236106    -0.00009467815929    -0.00001457017970     0.49983556511483     0.00022583778533     0.49993859709984
                 186    -0.00566086450473    -0.00001595374759    -0.00000104000555     0.49983879914026     0.00594757335886     0.49421362750088
                 187     0.00001769113362    -0.00006940501889     0.00000728458443     0.49979290967115     0.00029138337727     0.49991570695157
                 188    -0.00563477279166    -0.00008290300631     0.00000728559534     0.49981994171524     0.00596746763811     0.49421259064666
                 189     0.00002705327414     0.00004612230102     0.00001872918979     0.49939026082131     0.00083032741398     0.49977941176471
                 190    -0.00564728346139     0.00003572886346     0.00001352663707     0.49943708379578     0.00651265073326     0.49405026547095
                 191     0.00000485989755     0.00015736316064     0.00006135650707     0.49923200818716     0.00105647449503     0.49971151731780
                 192    -0.00553565865883     0.00011830830650    -0.00006452609298     0.49923896391693     0.00666092598866     0.49410011009440
                 193     0.00002497571805    -0.00002636559249    -0.00001560982378     0.49930796447898     0.00097093103927     0.49972110448175
                 194    -0.00559933508381    -0.00013769444518    -0.00001873048907     0.49930489073881     0.00661355171327     0.49408155754792
                 195     0.00002289758535     0.00011237131470     0.00001977518734     0.49943484596170     0.00080453788510     0.49976061615321
                 196    -0.00553916323572     0.00011553067817    -0.00002497052091     0.49937365610044     0.00646379414771     0.49416254975185
                 197     0.00000312239800    -0.00017759473476     0.00000416319734     0.49987302248127     0.00018213988343     0.49994483763530
                 198    -0.00573917425030     0.00006830295265     0.00001559900166     0.49984504991681     0.00600714442425     0.49414780565895
                 199     0.00000624349636     0.00027434830764     0.00000416233091     0.49998751300728     0.00002497398543     0.49998751300728
                 200    -0.00571814005859     0.00003781542028     0.00000208145424     0.49998334836606     0.00580417817036     0.49421247346358
                 201     0.00006727234898    -0.00023441292739     0.00025244469103     0.49923018239822     0.00129135168874     0.49947846591303
                 202    -0.00507390700902    -0.00019777931992    -0.00009680777238     0.49926335877863     0.00614087439278     0.49459576682859
                 203     0.00020184504405     0.00006936328002    -0.00010092252202     0.49929354234584     0.00097558437955     0.49973087327461
                 204    -0.00548752509331     0.00003259850187     0.00030274656679     0.49936086835900     0.00653239883447     0.49410673280654
                 205     0.00000000000000    -0.00010402940565     0.00000000000000     0.50000000000000     0.00000000000000     0.50000000000000
                 206    -0.00575869007146    -0.00003469090404     0.00000000000000     0.50000000000000     0.00582807187955     0.49417192812045
                 207     0.00000000000000     0.00010405827263     0.00000000000000     0.50000000000000     0.00000000000000     0.50000000000000
                 208    -0.00565540212338    -0.00020817431129     0.00000000000000     0.50000000000000     0.00572479356047     0.49427520643953
                 209     0.00000000000000    -0.00006937699459     0.00000000000000     0.50000000000000     0.00000000000000     0.50000000000000
                 210    -0.00572161731049     0.00000000000000     0.00000000000000     0.50000000000000     0.00579097024759     0.49420902975241
                 211     0.00000000000000     0.00003469571855     0.00000000000000     0.50000000000000     0.00000000000000     0.50000000000000
                 212    -0.00582483877678    -0.00003467165939     0.00000000000000     0.50000000000000     0.00582483877678     0.49417516122322
                 213     0.00000000000000     0.00025553012967    -0.00001282851397     0.49998717148603     0.00001282851397     0.50000000000000
                 214    -0.00566638900458     0.00008225739275     0.00001284187144     0.49998715812856     0.00574864639733     0.49426419547411
                 215     0.00000000000000    -0.00013871549452     0.00000000000000     0.50000000000000     0.00000000000000     0.50000000000000
                 216    -0.00579257717655    -0.00006937218176     0.00000000000000     0.50000000000000     0.00586194935831     0.49413805064169
                 217     0.00000000000000     0.00010397171969     0.00000000000000     0.50000000000000     0.00000000000000     0.50000000000000
                 218    -0.00579378295865    -0.00010407993339     0.00000000000000     0.50000000000000     0.00586316958090     0.49413683041909
                 219     0.00000000000000     0.00003471498993     0.00000000000000     0.50000000000000     0.00000000000000     0.50000000000000
                 220    -0.00575589459085     0.00013869625520     0.00000000000000     0.50000000000000     0.00582524271845     0.49417475728155
                 221     0.00000000000000    -0.00000000000000     0.00000000000000     0.50000000000000     0.00000000000000     0.50000000000000
                 222    -0.00575789108567     0.00003468609088     0.00000000000000     0.50000000000000     0.00582726326743     0.49417273673257
                 223     0.00000000000000     0.00006939625260     0.00000000000000     0.50000000000000     0.00000000000000     0.50000000000000
                 224    -0.00575310182297    -0.00003465723990     0.00000000000000     0.50000000000000     0.00582241630277     0.49417758369724
                 225     0.00000000000000     0.00010411605470     0.00000000000000     0.50000000000000     0.00000000000000     0.50000000000000
                 226    -0.00572280799112     0.00003468368479     0.00000000000000     0.50000000000000     0.00579217536071     0.49420782463929
                 227     0.00000000000000     0.00010404383714     0.00000000000000     0.50000000000000     0.00000000000000     0.50000000000000
                 228    -0.00572280799112    -0.00010405105438     0.00000000000000     0.50000000000000     0.00579217536071     0.49420782463929
                 229     0.00000000000000    -0.00003467646855     0.00000000000000     0.50000000000000     0.00000000000000     0.50000000000000
                 230    -0.00575669302261     0.00006935774726     0.00000000000000     0.50000000000000     0.00582605076987     0.49417394923013
                 231     0.00000000000000     0.00003470053439     0.00000000000000     0.50000000000000     0.00000000000000     0.50000000000000
                 232    -0.00579338097551    -0.00006938180809     0.00000000000000     0.50000000000000     0.00586276278360     0.49413723721640
                 233     0.00082177531207     0.00019174757282     0.00063002773925     0.49449410540915     0.00764251040222     0.49786338418863
                 234    -0.00389555135599     0.00001457119067     0.00041114426480     0.49547741308722     0.01046102116577     0.49406156574700
                 235    -0.00035615203218     0.00016437786101    -0.00008218893050     0.48764426411430     0.01764322374809     0.49471251213761
                 236    -0.00264595995528     0.00010228038526     0.00010956244366     0.48822203730670     0.01865664084622     0.49312132184707
                 237     0.00024654969138    -0.00139334296431    -0.00090401553506     0.47307129481934     0.03550315555864     0.49142554962203
                 238    -0.00158568076692     0.00016285494960    -0.00013713373143     0.47572732953757     0.03602081349210     0.48825185697034
                 239     0.00016440066593    -0.00066488371218    -0.00010960044395     0.46596906215316     0.04499098224195     0.48903995560488
                 240    -0.00160569679902     0.00073954649470     0.00030129672006     0.46595347063310     0.04717085394074     0.48687567542615
                 241     0.00073980299667     0.00046964183698    -0.00016440066593     0.47068188124306     0.04173036903441     0.48758774972253
                 242    -0.00172245022416     0.00033252965112    -0.00071225466399     0.46860600596435     0.04315736754477     0.48823662649088
                 243     0.00098633557606    -0.00041825521509     0.00005479642089     0.48608170909343     0.01989110078380     0.49402719012277
                 244    -0.00217703975707     0.00029606023448     0.00030161044009     0.48500173538803     0.02261887157427     0.49237939303770
                 245     0.00052042160738    -0.00010401800793    -0.00013695305457     0.49246758199847     0.01068233825671     0.49685007974482
                 246    -0.00362773386356     0.00033610771533     0.00046583420049     0.49279327089837     0.01342481922137     0.49378190988026
                 247     0.00019181408255    -0.00049670886415    -0.00082206035380     0.47950329517863     0.02710058966354     0.49339611515782
                 248    -0.00336606507872     0.00052615755956     0.00019180077691     0.47980611820200     0.02938333351293     0.49081054828508
                 249     0.00005476603120    -0.00029393212311    -0.00005476603120     0.49414003466204     0.00854350086655     0.49731646447140
                 250    -0.00414894771903    -0.00033615435478    -0.00000000000000     0.49391590924860     0.01258993849125     0.49349415226016
                 251    -0.00046580188679    -0.00069402811295     0.00030140122087     0.49054696170921     0.01315205327414     0.49630098501665
                 252    -0.00356033533526     0.00070561079734    -0.00038386783285     0.49078717201166     0.01679092965062     0.49242189833772
                 253     0.00035634975711    -0.00017001930178    -0.00021929215822     0.49490145732131     0.00781228313671     0.49728625954199
                 254    -0.00458362457444    -0.00056776480267    -0.00041074523397     0.49460554592721     0.01179991472647     0.49359453934632
                 255     0.00041343005209    -0.00063956734017     0.00026983901958     0.49100581848588     0.01258810839731     0.49640607311682
                 256    -0.00277046939556     0.00011720316856     0.00013662518989     0.49185727925446     0.01482053303042     0.49332218771512
                 257    -0.00054822991401    -0.00116481703881    -0.00019430917020     0.47880362772269     0.02942120881617     0.49177516346114
                 258    -0.00190370713208     0.00020122390086     0.00030217905290     0.47875345028843     0.03024712856096     0.49099942115061
                 259    -0.00019368217082     0.00006316317173    -0.00000000000000     0.49122111978088     0.01297186172974     0.49580701848939
                 260    -0.00293602336677     0.00001561083581    -0.00024601563027     0.48956546954495     0.01656253904976     0.49387199140528
                 261     0.00032715792395     0.00028760957108    -0.00019150707744     0.49810782681099     0.00282577019151     0.49906640299750
                 262    -0.00500744504688     0.00011749719666     0.00013794537640     0.49800013863857     0.00773308133678     0.49426678002465
                 263     0.00000000000000     0.00003469571855     0.00000000000000     0.50000000000000     0.00000000000000     0.50000000000000
                 264    -0.00572558817406     0.00013880213755     0.00000000000000     0.50000000000000     0.00579498924283     0.49420501075716
                 265     0.00000000000000     0.00006935774726     0.00000000000000     0.50000000000000     0.00000000000000     0.50000000000000
                 266    -0.00575749167592    -0.00013873473918     0.00000000000000     0.50000000000000     0.00582685904550     0.49417314095449
                 267     0.00000000000000    -0.00003468609088     0.00000000000000     0.50000000000000     0.00000000000000     0.50000000000000
                 268    -0.00568536365527     0.00010400055467     0.00000000000000     0.50000000000000     0.00575469735839     0.49424530264161
                 269     0.00000000000000    -0.00027754648904     0.00000000000000     0.50000000000000     0.00000000000000     0.50000000000000
                 270    -0.00569128262077    -0.00020821765686     0.00000000000000     0.50000000000000     0.00576068850639     0.49423931149362
                 271     0.00000000000000    -0.00003467165939     0.00000000000000     0.50000000000000     0.00000000000000     0.50000000000000
                 272    -0.00579257717655     0.00006937218176     0.00000000000000     0.50000000000000     0.00586194935831     0.49413805064169
                 273     0.00000000000000    -0.00006936736959     0.00000000000000     0.50000000000000     0.00000000000000     0.50000000000000
                 274    -0.00575549545801     0.00010401497816     0.00000000000000     0.50000000000000     0.00582483877678     0.49417516122322
                 275     0.00000000000000    -0.00003469571855     0.00000000000000     0.50000000000000     0.00000000000000     0.50000000000000
                 276    -0.00579378295865    -0.00003469331113     0.00000000000000     0.50000000000000     0.00586316958090     0.49413683041909
                 277     0.00000000000000    -0.00013877324452     0.00000000000000     0.50000000000000     0.00000000000000     0.50000000000000
                 278    -0.00575589459085    -0.00006934812760     0.00000000000000     0.50000000000000     0.00582524271845     0.49417475728155
                 279     0.00000000000000    -0.00010402940565     0.00000000000000     0.50000000000000     0.00000000000000     0.50000000000000
                 280    -0.00579137189624    -0.00003467887363     0.00000000000000     0.50000000000000     0.00586072964350     0.49413927035650
                 281     0.00000000000000     0.00013873473918     0.00000000000000     0.50000000000000     0.00000000000000     0.50000000000000
                 282    -0.00572598556358     0.00003470294281     0.00000000000000     0.50000000000000     0.00579539144919     0.49420460855080
                 283     0.00000000000000    -0.00022049646374     0.00000000000000     0.49998751906809     0.00001248093191     0.50000000000000
                 284    -0.00567800138793     0.00006939625260     0.00000000000000     0.49998750867453     0.00575988896600     0.49425260235947
                 285     0.00000000000000     0.00019558884727     0.00002496878901     0.49996254681648     0.00004993757803     0.49998751560549
                 286    -0.00579483978360     0.00019558884727     0.00000624219725     0.49996878901373     0.00590789291164     0.49412331807463
                 287     0.00000000000000    -0.00010405827263     0.00000000000000     0.50000000000000     0.00000000000000     0.50000000000000
                 288    -0.00579498924283    -0.00006940106878     0.00000000000000     0.50000000000000     0.00586439031161     0.49413560968839
                 289     0.00000000000000    -0.00000000000000     0.00000000000000     0.50000000000000     0.00000000000000     0.50000000000000
                 290    -0.00578976563583     0.00003466925530     0.00000000000000     0.50000000000000     0.00585910414644     0.49414089585356
                 291     0.00000000000000    -0.00010404383714     0.00000000000000     0.50000000000000     0.00000000000000     0.50000000000000
                 292    -0.00579097024759     0.00000000000000     0.00000000000000     0.50000000000000     0.00586032318469     0.49413967681531
                 293     0.00000000000000     0.00020821765686     0.00000000000000     0.50000000000000     0.00000000000000     0.50000000000000
                 294    -0.00575709232156    -0.00003468127905     0.00000000000000     0.50000000000000     0.00582645487966     0.49417354512034
                 295     0.00000000000000    -0.00006939625260     0.00000000000000     0.50000000000000     0.00000000000000     0.50000000000000
                 296    -0.00578976563583    -0.00003466925530     0.00000000000000     0.50000000000000     0.00585910414644     0.49414089585356
                 297     0.00002080155318    -0.00024960248501     0.00000138677021     0.49991540701706     0.00012758285952     0.49995701012342
                 298    -0.00565182889801     0.00004024096734     0.00000277507978     0.49991952268628     0.00582666354534     0.49425381376839
                 299    -0.00000277315585     0.00027454242928     0.00000000000000     0.49999168053245     0.00001386577926     0.49999445368830
                 300    -0.00584946236559     0.00007075962539    -0.00000277488727     0.49998890045092     0.00586333680194     0.49414776274714
 l=         200
                   1     0.00122166688986     0.00116639754003    -0.00039612530975     0.26964690404303     0.27044685818459     0.45990623777238
                   2    -0.00004422810765    -0.00134479091314     0.00011830336870     0.34073345420489     0.22234281932328     0.43692372647183
                   3    -0.00040965460646     0.00164502330566    -0.00096074938291     0.32187308221149     0.23481602559636     0.44331089219215
                   4    -0.00041786218544    -0.00105609697550     0.00027417477119     0.32450163718787     0.23159855866039     0.44389980415174
                   5    -0.00031967587497    -0.00019522993352    -0.00094412364056     0.31852170924150     0.23758285252842     0.44389543823008
                   6     0.00072746343867    -0.00065188096730     0.00009813412000     0.31965529908632     0.23600146828302     0.44434323263066
                   7    -0.00021571984171     0.00005503533057     0.00052573193142     0.32185126396609     0.23521673136968     0.44293200466423
                   8     0.00028185313050     0.00024318816694    -0.00049902113683     0.32384384224310     0.23433867575991     0.44181748199699
                   9     0.00055713009340     0.00029574807829    -0.00002204311977     0.31578674818841     0.24329722644212     0.44091602536947
                  10    -0.00043250507765    -0.00115866865461     0.00004061941497     0.31355391885622     0.24450641436595     0.44193966677784
                  11     0.00043200399926     0.00081083224837    -0.00002626851509     0.32920220816669     0.22581533770330     0.44498245413001
                  12    -0.00019285654069    -0.00027279074761    -0.00020643532096     0.32569986935443     0.22824657854668     0.44605355209889
                  13     0.00030829462867     0.00048447270553    -0.00026991799008     0.32248495030873     0.23311481545288     0.44440023423839
                  14     0.00015611242024    -0.00030950089265    -0.00003639821260     0.32477598553377     0.23208917581930     0.44313483864692
                  15     0.00013458115163     0.00003422916291    -0.00016756680419     0.31696602594075     0.23904252001348     0.44399145404576
                  16    -0.00038254365848     0.00027223069683    -0.00072874601825     0.31492802657922     0.24019238653293     0.44487958688785
                  17     0.00054141212600    -0.00110479145832     0.00044459075897     0.33059889923153     0.22228348319617     0.44711761757231
                  18    -0.00024648388072     0.00021478839655     0.00036296248442     0.33326727120765     0.22016817005333     0.44656455873901
                  19    -0.00009853324148     0.00159890212694     0.00058423189083     0.30964046500087     0.24900176920578     0.44135776579335
                  20     0.00013577688314    -0.00017839921551     0.00092887774660     0.31565749210905     0.24463600053607     0.43970650735489
                  21    -0.00039336306545     0.00121579372447     0.00015540291109     0.31793001258277     0.24069015439410     0.44137983302313
                  22    -0.00007693392753    -0.00219255901731    -0.00055867891691     0.31396467063471     0.24350766547255     0.44252766389274
                  23    -0.00044654003771     0.00072226314327     0.00012968280076     0.32549470271927     0.23130788039184     0.44319741688889
                  24    -0.00051048631253    -0.00119309227295    -0.00020147306718     0.32541599464633     0.23120157837774     0.44338242697593
                  25    -0.00005377238235    -0.00097711578923     0.00081885334241     0.31553023279659     0.24265187124229     0.44181789596112
                  26    -0.00011379010043    -0.00020430256277     0.00159452657571     0.31736930655870     0.24124931098293     0.44138138245837
                  27    -0.00024979749708     0.00190179842646     0.00004429019150     0.32548153377098     0.23228475027010     0.44223371595892
                  28     0.00000487373878    -0.00068219222188     0.00027121127792     0.31838237596255     0.23806652929343     0.44355109474402
                  29     0.00016063171968     0.00050433467674     0.00057205666760     0.33235113797817     0.22156650258516     0.44608235943667
                  30     0.00006547170472     0.00227117569782     0.00044416811179     0.33517155666319     0.21921004996933     0.44561839336748
                  31     0.00013579221352    -0.00183228122805    -0.00005895751435     0.30896765062132     0.24958718704330     0.44144516233538
                  32    -0.00010193080220    -0.00263086528195    -0.00065166276639     0.31628730219977     0.24468024896022     0.43903244884001
                  33     0.00016161868509     0.00107253838573     0.00090129362715     0.31366921893711     0.24457613283635     0.44175464822654
                  34     0.00021552703004    -0.00103306614382    -0.00039055427435     0.31364819520613     0.24425844554678     0.44209335924709
                  35     0.00019983579220     0.00109928797837    -0.00017836958049     0.31598162771920     0.24191223912120     0.44210613315959
                  36    -0.00006024685509     0.00032074728313    -0.00081383828259     0.31441285339498     0.24319733935135     0.44238980725367
                  37    -0.00010023125635    -0.00138822361894    -0.00063356043022     0.31459844897796     0.24398860706055     0.44141294396149
                  38    -0.00060116965802     0.00152139307726     0.00049749903736     0.31723516174683     0.24202542707437     0.44073941117880
                  39    -0.00001794871319    -0.00155781367041     0.00097790561230     0.31002488810909     0.25063666518625     0.43933844670466
                  40     0.00017652412558     0.00081938781058     0.00001941991953     0.30636100023048     0.25306946366541     0.44056953610411
                  41    -0.00001793524081     0.00148471214889    -0.00079021989596     0.32394867334181     0.23264197027730     0.44340935638090
                  42     0.00032873684361    -0.00130551809813    -0.00018737199046     0.32243425749834     0.23308031401404     0.44448542848762
                  43    -0.00012425152989     0.00035353937763    -0.00007242092862     0.31225059919806     0.24546435598627     0.44228504481567
                  44    -0.00006005253228     0.00087266130345    -0.00026018761818     0.31595743708227     0.24186910845572     0.44217345446202
                  45     0.00003919999999    -0.00038919701749    -0.00026742356902     0.31255303118480     0.24555543934187     0.44189152947333
                  46    -0.00061529609865    -0.00094883279890     0.00040714694273     0.31183440230205     0.24669883812240     0.44146675957554
                  47     0.00000406872675     0.00136770734784    -0.00018455484518     0.31898460869874     0.23894572415094     0.44206966715032
                  48    -0.00009903472119    -0.00030859005112    -0.00029306201680     0.31837061787405     0.24035256034037     0.44127682178559
                  49    -0.00066718359918     0.00011019019909     0.00021300264789     0.31015906290700     0.24893728141331     0.44090365567969
                  50    -0.00037609549308    -0.00003208201720    -0.00069158929670     0.31475358819471     0.24538858429500     0.43985782751029
                  51    -0.00028488555414    -0.00242051273015     0.00021415465985     0.31597010414629     0.24408482433018     0.43994507152353
                  52    -0.00010686696582     0.00284146761533    -0.00064617234672     0.31105782036850     0.24783194093252     0.44111023869898
                  53     0.00006175739075    -0.00260997161959     0.00004658213714     0.32240996912801     0.23564476868961     0.44194526218238
                  54    -0.00002699919547    -0.00018234839483     0.00019443284002     0.32079525018032     0.23653550221091     0.44266924760877
                  55     0.00027548947273     0.00095122668933    -0.00046937351902     0.31892708220611     0.23823899304064     0.44283392475325
                  56     0.00020505176076     0.00156363843312    -0.00014562226227     0.32173716514497     0.23619498665750     0.44206784819753
                  57     0.00017617491327    -0.00088792140628     0.00020518809011     0.31031807276978     0.25023776033406     0.43944416689615
                  58    -0.00043096684943     0.00025748979461    -0.00084929755088     0.31479114809835     0.24666119524882     0.43854765665283
                  59     0.00006943697150    -0.00194336647503     0.00068537416051     0.31449623511307     0.24674796206625     0.43875580282068
                  60     0.00007925340610     0.00065388726781    -0.00009761076889     0.31267316512404     0.24761559999964     0.43971123487631
                  61    -0.00063562936737     0.00169392386024     0.00003602093724     0.31742315544265     0.24184194445271     0.44073490010464
                  62    -0.00003918791516    -0.00229399467635     0.00031055348765     0.31554546068070     0.24302922754530     0.44142531177400
                  63     0.00015715209030     0.00062692720327     0.00037146975988     0.31546543034285     0.24373401212639     0.44080055753076
                  64     0.00016796017456    -0.00014770397022    -0.00013732368165     0.31549300399986     0.24367358391502     0.44083341208512
                  65    -0.00045120247988    -0.00028452032781    -0.00013333643944     0.31828421228649     0.24016411698437     0.44155167072914
                  66     0.00019700664860    -0.00007390351756    -0.00116804600700     0.31045236283195     0.24546977521101     0.44407786195703
                  67     0.00012665927925     0.00147988552118     0.00031212857810     0.33053175754683     0.22384390904876     0.44562433340441
                  68     0.00054914586622    -0.00060095060350     0.00010950883554     0.32883075805041     0.22557551327467     0.44559372867493
                  69    -0.00010134854290     0.00049307495496    -0.00015989051405     0.31639900025734     0.24151187904034     0.44208912070232
                  70    -0.00012234571348     0.00079356918548     0.00009418728521     0.31945918164009     0.23847753398087     0.44206328437904
                  71     0.00000551850867    -0.00197762308862     0.00024375129098     0.32484184408415     0.23072821353336     0.44442994238249
                  72     0.00035922113880    -0.00088258472738     0.00060833869945     0.31841242293584     0.23593810631317     0.44564947075099
                  73     0.00043128529537     0.00173913117087    -0.00074360083258     0.33222769681978     0.22070070327715     0.44707159990307
                  74    -0.00023526851151     0.00016519682457     0.00002802373661     0.33501771770352     0.21872156623958     0.44626071605690
                  75     0.00045258009573     0.00056085133410     0.00018591599718     0.31593929282655     0.24092010711552     0.44314060005794
                  76     0.00036741747173    -0.00119065841324    -0.00061447596106     0.32044447935179     0.23712024615945     0.44243527448877
                  77     0.00067769818848     0.00050545742555    -0.00037514051935     0.32104030973648     0.23616409315690     0.44279559710662
                  78     0.00033978300165    -0.00004400649242    -0.00047541624240     0.31936569372168     0.23686165223027     0.44377265404805
                  79     0.00041807825341    -0.00138978907278    -0.00051099067233     0.32266856451367     0.23283289475554     0.44449854073078
                  80    -0.00002236541120    -0.00160445646419    -0.00010958974863     0.32615514464625     0.23053997833090     0.44330487702285
                  81     0.00019955395077     0.00305747537457    -0.00001673924595     0.31454084737247     0.24419151131007     0.44126764131746
                  82    -0.00013773131469    -0.00025474461384     0.00018037368411     0.31565362809820     0.24322363410828     0.44112273779351
                  83    -0.00011669512878     0.00055146761739    -0.00054527842065     0.32134092950514     0.23594840203710     0.44271066845777
                  84     0.00008367913873    -0.00009572641266    -0.00086705182954     0.31668562586420     0.24000529257771     0.44330908155809
                  85    -0.00030093631513    -0.00260607175047     0.00039324443953     0.32569882310473     0.23009893897136     0.44420223792390
                  86    -0.00014183379206     0.00172219891914     0.00060305153457     0.32020362128301     0.23447885387448     0.44531752484251
                  87     0.00083256691987     0.00117202853604     0.00032459557286     0.33160103697930     0.22187498636680     0.44652397665389
                  88     0.00003535099498     0.00027777961223     0.00119788700036     0.32950968039722     0.22279565421542     0.44769466538736
                  89    -0.00001462050993    -0.00160993062049     0.00060759618552     0.33002616024696     0.22256013058733     0.44741370916571
                  90     0.00017231994326    -0.00063443956252    -0.00104158184088     0.32801071564499     0.22470321783245     0.44728606652256
                  91    -0.00014504750904    -0.00055173994043    -0.00023644902574     0.32713872508069     0.22495318342667     0.44790809149264
                  92     0.00026081601193     0.00121396046296     0.00071027125625     0.33170331083978     0.22171570698846     0.44658098217176
                  93     0.00046310838822     0.00170592389886    -0.00025119121768     0.32046978487289     0.23502270833960     0.44450750678752
                  94    -0.00035121454517    -0.00052926197783    -0.00075230217043     0.32287353118943     0.23318893818624     0.44393753062433
                  95    -0.00013503038020    -0.00059954676895    -0.00052443209059     0.32519964641241     0.22971759011837     0.44508276346922
                  96     0.00019455644672     0.00067891019297    -0.00008847058088     0.32621420214450     0.22911011266412     0.44467568519138
                  97     0.00023768493371    -0.00156058242552    -0.00049847217157     0.32312577918240     0.23269951474916     0.44417470606844
                  98    -0.00021213553727     0.00007900426017     0.00027424402574     0.32113985003913     0.23335992626125     0.44550022369961
                  99    -0.00042236582765     0.00044460515565    -0.00117372325152     0.32522068768375     0.22800137318658     0.44677793912967
                 100     0.00047713974717     0.00167528858342    -0.00066935243351     0.32447047119455     0.22896046180193     0.44656906700352
                 101     0.00002084719713     0.00062411561876     0.00033803958735     0.32460887896877     0.22964485037975     0.44574627065148
                 102    -0.00007343439178     0.00022117996474    -0.00037366969491     0.32145594219342     0.23233404774517     0.44621001006141
                 103    -0.00002486959671     0.00067120275258    -0.00005053408922     0.33266741751729     0.21947747709359     0.44785510538912
                 104    -0.00041794060368    -0.00264156560058     0.00010969773287     0.33063702171313     0.22074011049766     0.44862286778921
                 105    -0.00003029239034     0.00096833718748     0.00033507102965     0.32603412496670     0.22539574879209     0.44857012624121
                 106    -0.00032615743812    -0.00093497098185    -0.00066962629783     0.32852793418932     0.22427078380396     0.44720128200672
                 107    -0.00029968459311     0.00137470109678    -0.00037713842769     0.32678700193006     0.22620944074283     0.44700355732711
                 108     0.00038361643268    -0.00146651358446    -0.00012963909934     0.32391387871884     0.22828582780991     0.44780029347125
                 109     0.00013664592220     0.00220205987993     0.00108052758392     0.33294526087530     0.21870592632592     0.44834881279878
                 110    -0.00010341091510    -0.00075547159618    -0.00009942561906     0.33348741110997     0.21728998338020     0.44922260550983
                 111    -0.00022917180520    -0.00134920953512    -0.00001600438651     0.33044682653896     0.22116587643976     0.44838729702128
                 112    -0.00034110849134     0.00157416982400    -0.00028860764017     0.33354834832824     0.21861691332754     0.44783473834422
                 113     0.00027546731571     0.00019320635679     0.00040380164588     0.32233479808557     0.23254071991840     0.44512448199602
                 114     0.00055260886371    -0.00168201990606     0.00013711962092     0.32459370914085     0.23086208424474     0.44454420661441
                 115    -0.00072777072849     0.00118238692503    -0.00016242670368     0.32912954593272     0.22466712374263     0.44620333032466
                 116     0.00004787206116    -0.00001923462045    -0.00017024027175     0.32486235076534     0.22821179907369     0.44692585016097
                 117    -0.00015464934414    -0.00133969953868     0.00079857880222     0.33323034453731     0.21920148213570     0.44756817332699
                 118    -0.00005936408091     0.00050221290479     0.00015200896732     0.33427476723907     0.21857723813260     0.44714799462833
                 119     0.00006188355045    -0.00048602967519    -0.00023723220636     0.32031648268730     0.23478372615695     0.44489979115574
                 120    -0.00003469967458     0.00059166038496    -0.00058067824075     0.32326994227144     0.23255810214539     0.44417195558316
                 121     0.00024788204037     0.00044202653810     0.00094370855696     0.32761560872887     0.22696798370294     0.44541640756819
                 122    -0.00006133202073     0.00118375686858    -0.00019223807380     0.32482571960791     0.22940457770972     0.44576970268238
                 123     0.00032922979535    -0.00070125800372     0.00015002219707     0.33058240304276     0.22286893127944     0.44654866567780
                 124     0.00023759966528    -0.00141044400043     0.00027288550839     0.32961868556425     0.22326307661704     0.44711823781871
                 125     0.00001158645758     0.00220550603297     0.00025768948695     0.32826276943520     0.22621867459877     0.44551855596603
                 126    -0.00003646470657    -0.00003649019598    -0.00025625437334     0.32848530679689     0.22610831485877     0.44540637834434
                 127     0.00012201165931     0.00108989841925     0.00099830305299     0.33317323413714     0.21906656781621     0.44776019804664
                 128    -0.00027925917207    -0.00043455802732    -0.00081235319640     0.32714540509039     0.22324359864038     0.44961099626923
                 129    -0.00026984662936     0.00079521900371     0.00085599490988     0.34247697275430     0.20598976056451     0.45153326668120
                 130     0.00040050600518    -0.00018613128570     0.00028577866053     0.34358630240025     0.20588063316944     0.45053306443032
                 131    -0.00047393597934    -0.00169643189433    -0.00027829919487     0.32317127252292     0.22942270661658     0.44740602086050
                 132    -0.00028412330520     0.00016890366187     0.00040297652436     0.32783882485680     0.22631092972665     0.44585024541656
                 133    -0.00016580361666     0.00048849552992     0.00088853383566     0.33389812542044     0.21842828436001     0.44767359021955
                 134     0.00009162732533     0.00067497214271     0.00055354491226     0.32838445454198     0.22233670162290     0.44927884383512
                 135    -0.00005136255246     0.00113125405623     0.00095213771338     0.34480206340097     0.20481927506516     0.45037866153387
                 136    -0.00008976519844    -0.00222224508232    -0.00046949854171     0.34198147845348     0.20692541408325     0.45109310746327
                 137    -0.00017100466524     0.00041998194387    -0.00000176867254     0.34270773767462     0.20615892501903     0.45113333730635
                 138     0.00002902406603     0.00194743767842     0.00079884029658     0.33768940111726     0.20940296866921     0.45290763021353
                 139     0.00031804629057    -0.00037090859555     0.00031806148256     0.34848070455642     0.19776706610815     0.45375222933543
                 140     0.00015435408075    -0.00070352022674    -0.00010721732950     0.35054399169310     0.19550733876039     0.45394866954651
                 141    -0.00000704138379     0.00143294820550     0.00009580268821     0.33650568130651     0.21142680597842     0.45206751271507
                 142    -0.00006348653945    -0.00284534688364     0.00075561957057     0.34036230532993     0.20867759024407     0.45096010442600
                 143     0.00001018764137    -0.00090140448367     0.00030811511836     0.33564699343866     0.21458055304198     0.44977245351936
                 144     0.00030415127815     0.00143874186436     0.00013536856744     0.33733633900899     0.21293005371083     0.44973360728018
                 145    -0.00009607962114    -0.00043507953296    -0.00085670545564     0.33684210567704     0.21361839881703     0.44953949550593
                 146     0.00002189780644     0.00093126198738     0.00089111942908     0.33443493836669     0.21526691999684     0.45029814163647
                 147    -0.00017331404826    -0.00020296339867    -0.00012494091553     0.34051362451804     0.20925778132149     0.45022859416048
                 148     0.00010542411885    -0.00011839013465    -0.00105535721123     0.33970996831120     0.20942616732725     0.45086386436155
                 149     0.00005425430299     0.00143537189721    -0.00001662952482     0.34339612508117     0.20501324180301     0.45159063311582
                 150     0.00004702611004    -0.00037070619497    -0.00052435734144     0.34237797122791     0.20571602177266     0.45190600699943
                 151    -0.00009053010036    -0.00223274697978    -0.00034766853081     0.34008024273210     0.20951268770277     0.45040706956513
                 152     0.00000387895406     0.00081919606054    -0.00007802679173     0.33868481896200     0.21040986196400     0.45090531907400
                 153     0.00037208861271     0.00061644782608    -0.00074775834470     0.34768055992405     0.19960936618882     0.45271007388713
                 154    -0.00004682277612     0.00059529592652     0.00010055290880     0.34497171266048     0.20190416502320     0.45312412231632
                 155     0.00019103631255    -0.00270580092573    -0.00009338388641     0.34934797946175     0.19726726584042     0.45338475469783
                 156    -0.00024557542231     0.00201522229499    -0.00039786444627     0.34688377370786     0.19861799651381     0.45449822977832
                 157     0.00052260508523     0.00014743990682     0.00044295090876     0.35059014913366     0.19373840589181     0.45567144497453
                 158     0.00000074742194    -0.00134992436966     0.00040479967325     0.34967680025070     0.19427604634677     0.45604715340253
                 159    -0.00024628191847     0.00159973366274    -0.00012864842947     0.35213782295968     0.19193513182979     0.45592704521053
                 160    -0.00013901492423    -0.00208551289487    -0.00073121656228     0.34984650101726     0.19357488901961     0.45657860996313
                 161     0.00004442575535     0.00041760344252    -0.00028480821684     0.36280035733604     0.17922780693464     0.45797183572932
                 162    -0.00013941670239     0.00103296715214    -0.00018498783325     0.36013599429915     0.18143044231961     0.45843356338124
                 163     0.00008050960360     0.00043858242802     0.00044455785400     0.36579290049158     0.17588371154551     0.45832338796291
                 164    -0.00039409841322    -0.00028541082425    -0.00076875816639     0.36473988503509     0.17652482884277     0.45873528612214
                 165    -0.00001659907885    -0.00110784092384     0.00066760209683     0.36498563686182     0.17599090497919     0.45902345815900
                 166     0.00008877619910     0.00013697117653    -0.00042308910632     0.36340691480025     0.17697899456462     0.45961409063514
                 167    -0.00012796183518     0.00035896257048    -0.00060549312477     0.37052992039336     0.16905642726999     0.46041365233666
                 168    -0.00006104570252     0.00004341431124    -0.00058441806152     0.37093019535275     0.16847617891308     0.46059362573416
                 169     0.00022076647557    -0.00023248737269    -0.00003569460135     0.36005307310068     0.18186324845893     0.45808367844038
                 170    -0.00005247172969    -0.00051785360970    -0.00015535822369     0.36132707208330     0.18116949552044     0.45750343239625
                 171     0.00031255583977    -0.00068345402855    -0.00041346635700     0.36495620387431     0.17611323631452     0.45893055981117
                 172     0.00016237642860     0.00058664916955    -0.00055820980205     0.36060146768420     0.17950614264926     0.45989238966654
                 173     0.00034703785039    -0.00004192714650     0.00014361769081     0.38332304956620     0.15293103998221     0.46374591045159
                 174    -0.00028094768867    -0.00030642325321    -0.00028762718471     0.38198519186858     0.15425217923081     0.46376262890060
                 175     0.00042709063110    -0.00025800751326    -0.00011520282592     0.37334694391444     0.16513225808841     0.46152079799715
                 176    -0.00100489254479     0.00042643609082     0.00040989172518     0.37309660629776     0.16543503195507     0.46146836174717
                 177    -0.00016790019796    -0.00109517890858    -0.00024692508568     0.38166715784665     0.15457158603966     0.46376125611369
                 178    -0.00018290341578     0.00118682220715     0.00037917518092     0.37850490480479     0.15682047021009     0.46467462498512
                 179     0.00024978697215     0.00000961967976    -0.00012630633578     0.39165463051935     0.14200577012192     0.46633959935873
                 180    -0.00015257428798    -0.00115879691185    -0.00020415970570     0.39164419509603     0.14236285689549     0.46599294800849
                 181     0.00033161526439     0.00007830339947     0.00028345669321     0.37713209868257     0.16035871923264     0.46250918208479
                 182    -0.00036626859512     0.00171466160222     0.00006171305859     0.37616948747788     0.16050518196574     0.46332533055638
                 183     0.00016616047373     0.00038598985808     0.00049981278244     0.39602707279976     0.13624623459006     0.46772669261018
                 184    -0.00078470886608    -0.00100579651955     0.00012243119006     0.39196527966323     0.13963549876122     0.46839922157556
                 185     0.00016847584331     0.00039539389321    -0.00018282303701     0.39894310213434     0.13155753941392     0.46949935845174
                 186    -0.00069814396503     0.00080580038420    -0.00015821521972     0.39936971540803     0.13189865907251     0.46873162551946
                 187     0.00025153314366    -0.00049125089502     0.00049614104434     0.39009251594265     0.14251140278775     0.46739608126960
                 188    -0.00056756177926    -0.00076265583382    -0.00031461424817     0.39272457030143     0.14088976328398     0.46638566641459
                 189     0.00023793488609     0.00074137021966     0.00038792962685     0.38548351626818     0.14856097621732     0.46595550751449
                 190    -0.00019458672921    -0.00051664023639     0.00040788586682     0.38694510131863     0.14777276842670     0.46528213025467
                 191    -0.00008536706377     0.00050603055974     0.00010968552625     0.38800072824473     0.14638339204171     0.46561587971356
                 192    -0.00025084938850    -0.00063496793645     0.00018559199945     0.38758094450787     0.14660709373770     0.46581196175443
                 193    -0.00024824422691     0.00019570209405     0.00007903566134     0.38271260616478     0.15307129900140     0.46421609483383
                 194    -0.00016543810930     0.00014534642083     0.00026883080307     0.38384190087337     0.15217610072549     0.46398199840114
                 195    -0.00009924806426     0.00035598224758    -0.00082910735288     0.38754949831781     0.14750585537162     0.46494464631057
                 196    -0.00010091233485     0.00036182611260    -0.00028344494381     0.38417500378168     0.14954671869023     0.46627827752809
                 197     0.00002739477215    -0.00104515033610    -0.00009917903749     0.40057315373626     0.13020514662573     0.46922169963802
                 198    -0.00064001181475     0.00076535487191     0.00046499733483     0.39712757058214     0.13346274708595     0.46940968233191
                 199     0.00013139063119     0.00076763913027     0.00051573726980     0.40599550631303     0.12339803667103     0.47060645701593
                 200    -0.00082359533611    -0.00074326272679     0.00020628385171     0.40393539145658     0.12499982551398     0.47106478302944
                 201    -0.00017801097490     0.00006790165480     0.00002387942068     0.41149409359908     0.11520609708263     0.47329980931829
                 202    -0.00086199482000     0.00031978351310    -0.00019666122960     0.40947211724486     0.11794989828799     0.47257798446715
                 203     0.00037129436449     0.00058933249293     0.00061923603973     0.41061521222833     0.11582896482856     0.47355582294311
                 204    -0.00128974550525    -0.00002797034826     0.00063400898824     0.41274470224642     0.11578351556737     0.47147178218621
                 205    -0.00006423791841     0.00008984669312     0.00022725054718     0.40468026838113     0.12356013841442     0.47175959320444
                 206    -0.00124362184791    -0.00024933302740    -0.00001384830422     0.40613917555924     0.12343860116962     0.47042222327114
                 207     0.00036560187574     0.00144316491806     0.00026022609097     0.40377298767180     0.12608714502244     0.47013986730576
                 208    -0.00102137358093    -0.00133625090560     0.00052172714926     0.40185948818727     0.12813532630850     0.47000518550423
                 209     0.00030483898941    -0.00072867551412    -0.00017726214745     0.41078377899519     0.11681798376864     0.47239823723617
                 210    -0.00127749367457     0.00036201852364    -0.00015233535031     0.40928247842616     0.11883213655749     0.47188538501636
                 211    -0.00023269393062     0.00038399985420     0.00020912884393     0.41413694508239     0.11251216447278     0.47335089044482
                 212    -0.00136662032830    -0.00002291552376    -0.00009079590702     0.41388996716336     0.11386708227336     0.47224295056327
                 213    -0.00002989937402     0.00094246124074    -0.00008248271510     0.40922388612693     0.11807312880038     0.47270298507270
                 214    -0.00099607397260    -0.00128847655704    -0.00005479912802     0.41099233786978     0.11781476839734     0.47119289373288
                 215     0.00032801790775     0.00007254178847     0.00036305070005     0.40033316738658     0.12834848931242     0.47131834330099
                 216    -0.00132530431996    -0.00012692307008    -0.00039828998147     0.40303498402285     0.12776569012503     0.46919932585212
                 217     0.00023608034029     0.00080450162824    -0.00035264823878     0.39227510353631     0.13862537577036     0.46909952069333
                 218    -0.00087350438262    -0.00008876299791    -0.00016552199559     0.39600592371908     0.13690799558937     0.46708608069155
                 219     0.00016622633517    -0.00073499066495    -0.00007119180386     0.39430139376563     0.13809380488877     0.46760480134560
                 220    -0.00114683842739     0.00056405525231     0.00049683830359     0.39292652676510     0.14005837867065     0.46701509456425
                 221    -0.00000164934451     0.00067305581124    -0.00020333537942     0.39600569690875     0.13567687991534     0.46831742317591
                 222    -0.00103366342871     0.00009153953860     0.00008398860398     0.39481898551298     0.13706060323891     0.46812041124811
                 223     0.00052746757311     0.00083304488268     0.00002320813374     0.40310094943570     0.12642003397237     0.47047901659193
                 224    -0.00114135435024    -0.00033596716612     0.00062654562347     0.40167678876083     0.12846351496546     0.46985969627371
                 225    -0.00012248246640    -0.00011493261069     0.00007491339391     0.39602167538940     0.13519987701351     0.46877844759708
                 226    -0.00082868089006     0.00035110884992     0.00035901718492     0.39561411224802     0.13636901750202     0.46801687024996
                 227     0.00036909509399    -0.00032581016581     0.00046696718483     0.40771496945159     0.12107908046712     0.47120595008130
                 228    -0.00102836102374    -0.00014080255874    -0.00001287964879     0.40300090358010     0.12547810049178     0.47152099592812
                 229     0.00025069044141    -0.00045571336740     0.00024551084520     0.41629766303797     0.10942244202546     0.47427989493657
                 230    -0.00164228082669     0.00025731527975     0.00022191577318     0.41673727195468     0.11062083484005     0.47264189320527
                 231     0.00010416175929     0.00053712046036     0.00012361529086     0.40553164870947     0.12199263857715     0.47247571271338
                 232    -0.00119128141144    -0.00052898919769    -0.00049529041230     0.40983732272536     0.12002985529978     0.47013282197486
                 233     0.00065994133202     0.00097520952817     0.00034540995518     0.38640981366896     0.14589046997773     0.46769971635331
                 234    -0.00021902169263    -0.00125257800017    -0.00004328543455     0.39089140509022     0.14313148774159     0.46597710716819
                 235    -0.00004199419425     0.00092716627480     0.00003645803183     0.38845513922423     0.14481613756138     0.46672872321439
                 236    -0.00088466964109     0.00031493799052     0.00031784514714     0.39192817447216     0.14262100379403     0.46545082173380
                 237     0.00033207831672    -0.00096195658300     0.00007370849030     0.36788557710027     0.17024600424230     0.46186841865743
                 238    -0.00035633052763     0.00140102565767    -0.00016652851179     0.37308036213081     0.16697783695410     0.45994180091509
                 239     0.00028823864428    -0.00137444228610    -0.00039495112637     0.36897608489958     0.17078121243867     0.46024270266175
                 240    -0.00020045377799    -0.00084418188605     0.00048272374492     0.36636902936416     0.17257985709455     0.46105111354129
                 241     0.00055037905890     0.00028870267374     0.00013696907790     0.37942291072025     0.15766444325662     0.46291264602313
                 242    -0.00033853099399     0.00193148763667    -0.00162196385574     0.37741141317966     0.15868904161605     0.46389954520430
                 243     0.00046582397697    -0.00009328129980    -0.00014570364944     0.37688417311309     0.16012240437175     0.46299342251516
                 244    -0.00012079797410    -0.00043913275115     0.00011339487117     0.37549205981383     0.16155364629255     0.46295429389362
                 245     0.00039176630455    -0.00066265874548     0.00004614511726     0.39170083058172     0.14124245282764     0.46705671659064
                 246    -0.00074768633003     0.00050290410705     0.00027109919540     0.39009083507334     0.14295050483163     0.46695866009503
                 247     0.00026216916245    -0.00076123395527    -0.00034926332264     0.38134632521315     0.15379825801282     0.46485541677403
                 248    -0.00025270842102     0.00055974217502     0.00013326687248     0.37916101560151     0.15605235315588     0.46478663124261
                 249    -0.00052417014960     0.00040886030408    -0.00055439510282     0.40422132153206     0.12553463264735     0.47024404582059
                 250    -0.00082689605323    -0.00048585026494     0.00023303535793     0.40359429199790     0.12729106525700     0.46911464274511
                 251     0.00023390723299    -0.00086149085986    -0.00037892471360     0.38595365048804     0.14904796682830     0.46499838268366
                 252    -0.00081371802406     0.00068138102455    -0.00019736931616     0.38690496533365     0.14892754412424     0.46416749054210
                 253     0.00005906319552    -0.00022029345086     0.00025949827911     0.40285913895190     0.12724902977336     0.46989183127474
                 254    -0.00086938481783    -0.00098617681393     0.00019701403205     0.39989822330227     0.13019113030374     0.46991064639399
                 255     0.00020568774479     0.00095200318697     0.00001371838609     0.39257687081587     0.13877348150141     0.46864964768272
                 256    -0.00112360362134     0.00052250999605     0.00007230516285     0.39759098700332     0.13578505890086     0.46662395409582
                 257     0.00001849566741    -0.00055228835152    -0.00020924524601     0.37737062448663     0.15983572579359     0.46279364971978
                 258    -0.00016350592905    -0.00023560996464    -0.00052177747527     0.37964172215110     0.15725233542961     0.46310594241928
                 259     0.00012513807799     0.00082342280944     0.00000065234238     0.38598911883710     0.14875576399629     0.46525511716660
                 260    -0.00036596245663     0.00024174722387    -0.00012297952842     0.38119780972891     0.15223653764807     0.46656565262302
                 261     0.00015247828744     0.00001088489812    -0.00015884078427     0.40484453700245     0.12544405498129     0.46971140801626
                 262    -0.00081798455594    -0.00089642060499    -0.00012314931242     0.40279531180451     0.12760927034530     0.46959541785019
                 263     0.00031974265948     0.00060023546461     0.00006517022240     0.39311170447767     0.13963883076390     0.46724946475844
                 264    -0.00108937787987     0.00051424070225     0.00049033667392     0.39170729107962     0.14134857633146     0.46694413258892
                 265     0.00018240130941    -0.00040290033543     0.00044558223583     0.41413056500988     0.11344870498054     0.47242073000957
                 266    -0.00085318765333    -0.00026567643782     0.00015714501912     0.41044401362380     0.11710355979437     0.47245242658183
                 267    -0.00015948068944    -0.00101315061488     0.00055204116760     0.41787445429497     0.10804350892863     0.47408203677640
                 268    -0.00135308631802     0.00070465076926    -0.00032422559610     0.41654270469820     0.10994871311746     0.47350858218434
                 269     0.00002908212436    -0.00025674541193    -0.00052625347441     0.41711051146825     0.10905199058185     0.47383749794990
                 270    -0.00126098758285    -0.00079903120717    -0.00020048067521     0.41659422511756     0.11029236227102     0.47311341261142
                 271     0.00065389495126     0.00068938784919    -0.00008049180568     0.41578894347568     0.10929991189655     0.47491114462777
                 272    -0.00145024086143     0.00022517693343    -0.00000624279139     0.41611964985143     0.10954200036594     0.47433834978263
                 273     0.00028670670959    -0.00056902390505     0.00061883941758     0.42437346439682     0.09894901026343     0.47667752533976
                 274    -0.00140888673805     0.00020812430643     0.00010957470609     0.42366184090349     0.10093115597597     0.47540700312054
                 275     0.00003666718532     0.00001980371529    -0.00000689026369     0.41524771706395     0.11019984199342     0.47455244094263
                 276    -0.00148149465392     0.00024423146412     0.00040335816661     0.41561575983237     0.11101076132093     0.47337347884670
                 277     0.00029762617474    -0.00055333167146     0.00055987638735     0.41745563124834     0.10739170495003     0.47515266380163
                 278    -0.00159580500646     0.00016056815988    -0.00013699879051     0.41816988508011     0.10844422451812     0.47338589040176
                 279     0.00036769929997    -0.00083008083072    -0.00033090050051     0.41728530033949     0.10834577664001     0.47436892302051
                 280    -0.00171858369023    -0.00003741126886    -0.00044022825706     0.41789164822322     0.10908668875549     0.47302166302129
                 281     0.00014527335718     0.00030109370292    -0.00021847592462     0.40053388585153     0.12875298332487     0.47071313082360
                 282    -0.00105427836673    -0.00019745957750     0.00006283050930     0.40424099333221     0.12733285987381     0.46842614679398
                 283     0.00014419016787    -0.00114869678957     0.00036955470862     0.40484365895648     0.12432976624558     0.47082657479794
                 284    -0.00148482145846     0.00105864772542    -0.00009852317892     0.40219176986965     0.12721680765629     0.47059142247406
                 285    -0.00008152776158     0.00016859731664    -0.00004404257650     0.41741964209272     0.10839244793338     0.47418790997390
                 286    -0.00072791290998     0.00090415168081    -0.00001320437082     0.41580020179154     0.11060161377166     0.47359818443680
                 287    -0.00011737247073    -0.00056189662318    -0.00017761708185     0.41665776149003     0.10940646721593     0.47393577129405
                 288    -0.00138968013892     0.00002015058790    -0.00008528229199     0.41592251353706     0.11065354682511     0.47342393963783
                 289     0.00008316349807    -0.00005415863711     0.00041522352803     0.41749148909879     0.10669843231979     0.47581007858142
                 290    -0.00119626086512    -0.00081995335419     0.00023441541571     0.41868737155358     0.10691129909837     0.47440132934805
                 291     0.00025427229558     0.00042457247101    -0.00026987313605     0.40747013337795     0.11930335649425     0.47322651012781
                 292    -0.00124977540197    -0.00023354400345     0.00025534326323     0.41136016370692     0.11743347487729     0.47120636141579
                 293     0.00031424148571     0.00115904728848     0.00028899728716     0.40320228869481     0.12619726540487     0.47060044590033
                 294    -0.00111165321704    -0.00026643525119     0.00030428164837     0.40374263497405     0.12722700959267     0.46903035543327
                 295     0.00018825185474    -0.00082702733788     0.00023102665868     0.40554382955522     0.12324553204656     0.47121063839822
                 296    -0.00118758753192     0.00056012216787    -0.00016956675835     0.40298927669628     0.12602064969283     0.47099007361088
                 297     0.00057576510882    -0.00068842154563    -0.00028754235180     0.41605536420333     0.11133812344521     0.47260651235146
                 298    -0.00118570219234     0.00060294519346     0.00053634582707     0.41190681761155     0.11508243723481     0.47301074515364
                 299     0.00034330269423     0.00164876826395    -0.00043686861943     0.42903255994172     0.09666967433228     0.47429776572600
                 300    -0.00193003729541    -0.00110882074319     0.00013690250177     0.40844948867316     0.11087745594056     0.48067305538628
 l=         300
                   1     0.00103550343357     0.00088494550127    -0.00042706748162     0.22180158137567     0.32545972333227     0.45273869529207
                   2    -0.00085322298658    -0.00172037500732     0.00030275819077     0.32653602930078     0.25263264920428     0.42083132149493
                   3     0.00029967792752     0.00156408520191     0.00056837058690     0.29656081469608     0.27521471710817     0.42822446819575
                   4     0.00026351245556    -0.00212357763908     0.00022355574667     0.30224539040996     0.27060033090708     0.42715427868296
                   5     0.00089901390421     0.00114487224373    -0.00041072639328     0.29581122467799     0.27543932535548     0.42874944996653
                   6     0.00013214482242    -0.00159488350521    -0.00112231366654     0.29825340624339     0.27424631264004     0.42750028111658
                   7     0.00031247896489    -0.00040974344920     0.00085788102058     0.29635708680076     0.27624406675226     0.42739884644698
                   8     0.00002863298007     0.00018457475933     0.00003226440674     0.29818466813135     0.27598149765348     0.42583383421518
                   9     0.00098617998506     0.00192060949931     0.00038146039222     0.29895122356530     0.27627002702530     0.42477874940940
                  10    -0.00042595890517     0.00063185032981    -0.00035716223480     0.29702092337972     0.27682963954329     0.42614943707698
                  11     0.00001583441444    -0.00027210400161    -0.00034609198587     0.30128533776537     0.27075494417349     0.42795971806115
                  12    -0.00006838004462    -0.00096925253217     0.00037449289359     0.29836063533664     0.27274326590460     0.42889609875876
                  13     0.00009825106283    -0.00009132000187     0.00098396357975     0.30083308658536     0.27109025127778     0.42807666213686
                  14    -0.00025433125898     0.00031283629681    -0.00096948795873     0.30223921499752     0.27026924630675     0.42749153869573
                  15    -0.00019536425477    -0.00128216051368     0.00144859936542     0.29742467422795     0.27464574397714     0.42792958179491
                  16     0.00057719729566     0.00070661438958    -0.00012253905396     0.29559130799008     0.27544670169384     0.42896199031607
                  17    -0.00046504589657     0.00038993553319    -0.00020862968541     0.30278129380580     0.26642418905203     0.43079451714217
                  18     0.00049793637628    -0.00014902044563     0.00024663315352     0.30522991806345     0.26463482433955     0.43013525759700
                  19     0.00028038153671     0.00021243863961     0.00065942569855     0.29294709321720     0.28051900207667     0.42653390470613
                  20    -0.00001562419583    -0.00041966879887    -0.00100603772786     0.29714434515852     0.27765928815415     0.42519636668733
                  21    -0.00003260206005     0.00023542559492     0.00102792651026     0.30114830812527     0.27252397036802     0.42632772150670
                  22    -0.00060806750788    -0.00227472068059    -0.00056715825550     0.29554504237891     0.27578457181033     0.42867038581076
                  23    -0.00028274092285    -0.00024303038218     0.00020085814324     0.30253508059115     0.26814925874453     0.42931566066431
                  24    -0.00094745667715     0.00162017743831    -0.00011424388125     0.30444807592832     0.26621884781333     0.42933307625835
                  25     0.00031382713218     0.00059564938877     0.00113405215684     0.29723437629061     0.27504421784469     0.42772140586470
                  26    -0.00064595707672    -0.00322716858831     0.00092931054402     0.29934818669605     0.27389278477306     0.42675902853089
                  27    -0.00025304402802     0.00278261758515    -0.00061890781939     0.29911641219806     0.27451738977235     0.42636619802959
                  28    -0.00013662417006     0.00254027964543     0.00045537114242     0.29474334651928     0.27741659067568     0.42784006280504
                  29    -0.00009151893087    -0.00179846083903    -0.00068575377348     0.30406132235978     0.26675829362817     0.42918038401205
                  30     0.00015994290226     0.00103026591280     0.00120082476803     0.30460944745786     0.26670117244420     0.42868938009795
                  31     0.00021392933269    -0.00026641801376     0.00037343172309     0.29143010883825     0.28288527038900     0.42568462077275
                  32     0.00060863874071    -0.00405452805536     0.00078689723031     0.29857907850169     0.27740611990607     0.42401480159224
                  33    -0.00026283554868     0.00167099784139     0.00114770936176     0.29674973300722     0.27680549190893     0.42644477508385
                  34    -0.00065661710436    -0.00051995015021     0.00156213709255     0.29622097625005     0.27683056246157     0.42694846128838
                  35    -0.00017056365067    -0.00175350254866    -0.00101051276528     0.29626536814998     0.27758316467764     0.42615146717238
                  36    -0.00015846413670    -0.00005535820658     0.00085912340820     0.29356024028559     0.27949684742475     0.42694291228966
                  37     0.00041153076425     0.00178854132843    -0.00000596197086     0.29994231917734     0.27300036589551     0.42705731492715
                  38    -0.00015993484072    -0.00152662994568     0.00030312604112     0.29964304865459     0.27401370115859     0.42634325018682
                  39    -0.00078980280363    -0.00261364784037     0.00039397361951     0.29449531020610     0.27979050793658     0.42571418185732
                  40    -0.00089703697108     0.00120983675595    -0.00012427809573     0.29547133736246     0.27807624686504     0.42645241577250
                  41     0.00000935068416     0.00362777320522    -0.00042125640668     0.29884396580850     0.27313481557430     0.42802121861720
                  42    -0.00036933336491     0.00004919143308    -0.00028077994447     0.29780439592100     0.27334270889873     0.42885289518027
                  43     0.00001065408842    -0.00186672324174    -0.00023208185756     0.29639413906260     0.27620580129940     0.42740005963800
                  44     0.00020778918991    -0.00069852622487    -0.00010047519353     0.29772692067079     0.27539433670430     0.42687874262491
                  45     0.00031148127972    -0.00010163811648    -0.00066200837798     0.29555643065403     0.27728927301827     0.42715429632769
                  46    -0.00013672619843    -0.00056143819705     0.00057056673193     0.29503636768523     0.27823953527808     0.42672409703669
                  47     0.00043937471499    -0.00007363531082    -0.00105752853195     0.29792974346257     0.27422854041554     0.42784171612189
                  48     0.00015287139347     0.00088757654806    -0.00026857831983     0.29659482879277     0.27596224132570     0.42744292988153
                  49    -0.00044116699076    -0.00122523932636    -0.00030519081725     0.29620165559659     0.27731579836804     0.42648254603537
                  50     0.00026318669489    -0.00103709536805     0.00010279905574     0.29859133715148     0.27522473808608     0.42618392476244
                  51    -0.00020785017334    -0.00098861014274    -0.00057105394552     0.29802807046335     0.27589575726635     0.42607617227029
                  52    -0.00077676505364     0.00116629889014     0.00028686937130     0.29471834490153     0.27870501578864     0.42657663930983
                  53    -0.00046115221947    -0.00083857049008    -0.00089993518221     0.30118495741112     0.27018307946873     0.42863196312016
                  54     0.00010443431274    -0.00176291255342    -0.00056081176408     0.30062418877904     0.27057380708260     0.42880200413836
                  55    -0.00036695989773     0.00194325052908    -0.00117457735798     0.29668695423673     0.27465200904769     0.42866103671558
                  56     0.00020424243787    -0.00011274394807     0.00071913087864     0.29980859584504     0.27235214633845     0.42783925781651
                  57     0.00018010929063     0.00045050394280     0.00035933804955     0.29476475781844     0.27900055090932     0.42623469127224
                  58    -0.00058785649976     0.00057403484324    -0.00106087317867     0.29654848355001     0.27854713955665     0.42490437689334
                  59     0.00057134162434    -0.00148449531119     0.00046088100842     0.30031259138065     0.27432014710056     0.42536726151879
                  60    -0.00073197983013     0.00005047301097    -0.00061782820215     0.29821240144582     0.27593527472338     0.42585232383080
                  61    -0.00016474057480     0.00199661224133    -0.00012263180006     0.29739110669603     0.27606990568611     0.42653898761786
                  62     0.00005014509454    -0.00149060766681    -0.00037304898898     0.29803039150642     0.27586883400563     0.42610077448795
                  63    -0.00016346538326     0.00135636227949     0.00040450442771     0.29552154369288     0.27834106880145     0.42613738750567
                  64    -0.00006799168447    -0.00093629086035     0.00082942310180     0.29589738466467     0.27768538955669     0.42641722577865
                  65     0.00075253907879     0.00033551108839     0.00034232691240     0.29743902061501     0.27604916151087     0.42651181787412
                  66    -0.00044593487782     0.00078415783580    -0.00043206996107     0.29427937753911     0.27800501194703     0.42771561051386
                  67     0.00046935897641     0.00126513522791     0.00096029687493     0.29940688653922     0.27077487163962     0.42981824182116
                  68     0.00015494053223     0.00166208419848    -0.00102417640959     0.29761012838165     0.27269748175986     0.42969238985848
                  69     0.00058287113043    -0.00131713803924    -0.00059480790040     0.29658758189065     0.27670010747679     0.42671231063256
                  70    -0.00010761516720    -0.00037131531440     0.00023406113215     0.29770172235173     0.27526280539997     0.42703547224830
                  71     0.00000958853295    -0.00027298700981     0.00083298603380     0.29921828904501     0.27219216193644     0.42858954901855
                  72     0.00037904315096     0.00009818727233     0.00023471794000     0.29623479601980     0.27439397489283     0.42937122908738
                  73    -0.00006175026490    -0.00002203307393    -0.00185045798042     0.30037894326815     0.26943978120622     0.43018127552563
                  74    -0.00043555448247     0.00048211690747     0.00129967291453     0.30310356783791     0.26781743821757     0.42907899394452
                  75     0.00050610497383     0.00049635708475    -0.00068833703325     0.29560039303007     0.27648801338194     0.42791159358799
                  76     0.00025456499999    -0.00232135847066     0.00106841413737     0.29876787053383     0.27405297186092     0.42717915760526
                  77     0.00056882299643     0.00164584888763    -0.00079523511450     0.29892010949841     0.27338055506925     0.42769933543234
                  78    -0.00052812270892    -0.00077930772618    -0.00022612290252     0.29669947559576     0.27517786378430     0.42812266061994
                  79    -0.00068123861088    -0.00043871491060    -0.00019244141532     0.30088897501087     0.27107358797940     0.42803743700974
                  80     0.00073147586966    -0.00287131505581     0.00098530457703     0.30114033705222     0.27141108780568     0.42744857514210
                  81     0.00061477893793     0.00546870869379    -0.00017299878915     0.29548951892912     0.27837137512907     0.42613910594181
                  82    -0.00031777140695     0.00153035740539     0.00078899350859     0.29819946621613     0.27592725641753     0.42587327736634
                  83     0.00039162052934    -0.00072661099727    -0.00169732227889     0.29872752148027     0.27410218148441     0.42717029703531
                  84    -0.00050632282165    -0.00280466295758     0.00116849274770     0.29638781812655     0.27622866014722     0.42738352172623
                  85     0.00033706046900    -0.00169262774376     0.00076048271716     0.29874166966327     0.27340802600601     0.42785030433073
                  86    -0.00008069210334     0.00381225420117    -0.00039865107789     0.29653879233287     0.27532327971504     0.42813792795209
                  87     0.00006480606168     0.00112952289964     0.00115117733287     0.30079787275533     0.27040814972639     0.42879397751827
                  88    -0.00075694615295    -0.00047034145342     0.00056740172989     0.29969176405982     0.27020748609486     0.43010074984532
                  89    -0.00076499535764    -0.00014925133133    -0.00087589246934     0.29934838592365     0.27106661465807     0.42958499941828
                  90     0.00018042372714    -0.00109122803120     0.00062389949523     0.29778691459609     0.27273771186137     0.42947537354253
                  91     0.00025290841073    -0.00012029128967    -0.00032044222727     0.29822303730619     0.27204372961919     0.42973323307462
                  92     0.00003371343910     0.00097541428623    -0.00025274466608     0.30087383657599     0.26984676569586     0.42927939772815
                  93    -0.00008180549694     0.00039136480180     0.00037985958722     0.29769129758686     0.27414278999087     0.42816591242227
                  94    -0.00022405204461    -0.00086471331477     0.00066172069321     0.29828289859821     0.27354785662433     0.42816924477746
                  95    -0.00008152772416    -0.00065371169449    -0.00029382103011     0.29723672940375     0.27411058858448     0.42865268201177
                  96     0.00048263584195    -0.00046498332338     0.00057307613264     0.29761036737974     0.27423634560639     0.42815328701386
                  97     0.00002714533046     0.00068369110171     0.00034718242258     0.29954485059675     0.27198163264399     0.42847351675925
                  98    -0.00075986710656    -0.00068800544716     0.00124833780962     0.29755069936980     0.27322854450535     0.42922075612486
                  99    -0.00004002035346     0.00145568915392    -0.00080949917950     0.29995592452858     0.27100133173871     0.42904274373270
                 100    -0.00101237107598    -0.00214116233143     0.00025531283252     0.30069781820129     0.27035907009521     0.42894311170350
                 101    -0.00016614375793     0.00191446573935     0.00087398497938     0.29797428605768     0.27390046254451     0.42812525139780
                 102    -0.00088769831530     0.00071102281462    -0.00046943181361     0.29594029094842     0.27481655698714     0.42924315206444
                 103    -0.00038586551749     0.00011711110347    -0.00098547212132     0.29992498521856     0.26993126782020     0.43014374696124
                 104     0.00017495668837     0.00042271223706     0.00072523934143     0.30036261956463     0.26798091047161     0.43165646996376
                 105     0.00019803677204    -0.00053664398971     0.00056995948097     0.29783819085145     0.27306990076967     0.42909190837888
                 106    -0.00021013125947    -0.00218242329780     0.00011154071186     0.29865253172592     0.27300093292153     0.42834653535255
                 107    -0.00048353750314     0.00160964351630    -0.00002683624924     0.30069092808846     0.26980004447081     0.42950902744073
                 108     0.00013380159452    -0.00132378219480    -0.00031687226744     0.29610076985636     0.27357702902981     0.43032220111383
                 109     0.00003432780643     0.00214530107483     0.00060185761810     0.30119612331355     0.26749518395884     0.43130869272761
                 110     0.00006793091549    -0.00047602628109     0.00113389333005     0.30171686970841     0.26729480295815     0.43098832733344
                 111     0.00018822854298    -0.00141069946916    -0.00098522288044     0.30173907187461     0.26774592359961     0.43051500452578
                 112     0.00003815765622     0.00210614287186    -0.00046325673906     0.30408777992912     0.26608365839070     0.42982856168018
                 113    -0.00153890340977     0.00009093482291     0.00039608142256     0.29538866270835     0.27641421174090     0.42819712555075
                 114     0.00110884772817    -0.00072327877838    -0.00115961390859     0.29890187553481     0.27276566560303     0.42833245886216
                 115    -0.00032428968406     0.00037632021236    -0.00094345485427     0.29953293337190     0.27114166084397     0.42932540578413
                 116    -0.00019735713646    -0.00067974181781    -0.00027497970768     0.29417941346724     0.27526164999395     0.43055893653880
                 117    -0.00073884679722    -0.00250947443554     0.00119570414055     0.30256527280634     0.26635699053921     0.43107773665445
                 118    -0.00029632715096     0.00249972733094    -0.00002606913396     0.30189589530763     0.26732426909613     0.43077983559625
                 119     0.00044185792749     0.00002385647665    -0.00028969588226     0.29591111172625     0.27578129223068     0.42830759604307
                 120    -0.00042888711139    -0.00066728449027    -0.00016240705241     0.30093350852368     0.27152330186493     0.42754318961138
                 121    -0.00002618721740     0.00234848591613     0.00062464696034     0.29806893846839     0.27441217218283     0.42751888934878
                 122     0.00107406791466     0.00022080486722    -0.00043373941100     0.29803374789892     0.27374178411378     0.42822446798730
                 123     0.00001208402961     0.00056805602148    -0.00039196896893     0.30043545924323     0.27086755134300     0.42869698941376
                 124     0.00040882308142    -0.00287752348410    -0.00085977093410     0.29800323780704     0.27328087225035     0.42871588994261
                 125    -0.00022718109467     0.00126295882726     0.00079311323335     0.30209950487296     0.26956686972594     0.42833362540109
                 126    -0.00017659100918     0.00121657909892    -0.00192604716165     0.30187116252331     0.26981142672347     0.42831741075322
                 127    -0.00001039215941    -0.00127877362115     0.00045571674023     0.30168644088249     0.26883409072356     0.42947946839395
                 128    -0.00018139843825     0.00218160457611     0.00043762340888     0.29792101980174     0.27151468660932     0.43056429358894
                 129    -0.00035746280501    -0.00127311863464    -0.00036660553754     0.30544836672071     0.26304459934195     0.43150703393734
                 130    -0.00017663914803     0.00176308441269    -0.00026290033055     0.30777505436374     0.26075392516479     0.43147102047147
                 131     0.00038356120847    -0.00156859485549     0.00018967798052     0.29832678436180     0.27255588858763     0.42911732705057
                 132    -0.00002707760884    -0.00125545415709    -0.00102566824007     0.29997844787640     0.27075513617613     0.42926641594747
                 133     0.00060358786274     0.00158184382547    -0.00005065445302     0.30161370698098     0.26899120251808     0.42939509050095
                 134     0.00030606355453     0.00165142178324     0.00086433519510     0.29569820223351     0.27361243387367     0.43068936389282
                 135     0.00030846446793     0.00036842078525    -0.00008983626717     0.30607398309632     0.26169485117395     0.43223116572973
                 136    -0.00081107671433    -0.00329493398591    -0.00001359037674     0.30585542827168     0.26128718117683     0.43285739055149
                 137    -0.00008354801126     0.00198168264628    -0.00077988098122     0.30069787859851     0.26612982775826     0.43317229364324
                 138    -0.00079023938043     0.00204186237744     0.00011771967264     0.30145274863701     0.26569005270833     0.43285719865466
                 139    -0.00015405409681     0.00086244646561    -0.00071578274079     0.30081902579947     0.26584193213824     0.43333904206228
                 140    -0.00014245360443    -0.00197306768086    -0.00070070867507     0.30229082194794     0.26496196417778     0.43274721387428
                 141     0.00037192825944     0.00113432557309    -0.00028152545346     0.29967500263105     0.26757237093157     0.43275262643738
                 142     0.00048062171693    -0.00354631126755    -0.00004514092791     0.30047692284532     0.26680070769901     0.43272236945567
                 143     0.00051472952691    -0.00015472204526     0.00032906914030     0.30018525009128     0.26931852158505     0.43049622832367
                 144     0.00038307468377     0.00090526546491     0.00145447494936     0.30157373608463     0.26821216040242     0.43021410351295
                 145    -0.00046342773935    -0.00019619741197    -0.00061622465312     0.29896363453536     0.27100487011005     0.43003149535459
                 146     0.00027416933963     0.00249961047598     0.00144087614174     0.29690689412271     0.27273890209606     0.43035420378124
                 147     0.00070651339927    -0.00279978661259    -0.00073138414957     0.30204859079503     0.26667747866541     0.43127393053956
                 148     0.00014390848020     0.00047616351785     0.00055087443107     0.29996570864346     0.26883577233331     0.43119851902323
                 149    -0.00025279468372     0.00306500579739     0.00143789021281     0.30401690674729     0.26335516286450     0.43262793038822
                 150    -0.00049150545245    -0.00312358256919    -0.00027368947959     0.30347639391507     0.26356918982050     0.43295441626443
                 151     0.00034261844494    -0.00186635188314    -0.00037447052705     0.29895256134729     0.26944918586259     0.43159825279012
                 152     0.00015434051628     0.00272563003384    -0.00008567236614     0.29670793715060     0.27114512599445     0.43214693685495
                 153     0.00033985654626    -0.00037864348211    -0.00052333621462     0.30400676347809     0.26153647340390     0.43445676311801
                 154     0.00044279064256     0.00054876891604     0.00085212090663     0.30298492947769     0.26256338763969     0.43445168288262
                 155     0.00003967640761    -0.00139071469567    -0.00027274663804     0.30474332693719     0.26265524353857     0.43260142952424
                 156     0.00034210237842     0.00154540427181     0.00059513622727     0.30512103914888     0.26153001523456     0.43334894561656
                 157    -0.00025876013918    -0.00121187842282    -0.00037581568737     0.30154915854802     0.26422421662826     0.43422662482372
                 158    -0.00013823296092    -0.00233323380927     0.00043613315479     0.30170311420428     0.26414574036906     0.43415114542666
                 159     0.00034098005042     0.00259378016486     0.00025598763062     0.30504553819497     0.26157988329640     0.43337457850862
                 160    -0.00004985768692    -0.00043494040895    -0.00147071702183     0.30429727422852     0.26138868200242     0.43431404376906
                 161     0.00045700728403    -0.00176890221047    -0.00058496438326     0.30388081387460     0.26164121665312     0.43447796947228
                 162    -0.00080290184408     0.00008137334638     0.00026727687648     0.30342154182623     0.26180321847471     0.43477523969906
                 163     0.00048066763336     0.00232032276418    -0.00045839013887     0.30619928090503     0.25893280816785     0.43486791092712
                 164     0.00062750143347     0.00157251280597    -0.00016218427241     0.30509074482120     0.26054710083564     0.43436215434316
                 165     0.00002768511762    -0.00348445225168    -0.00049124884423     0.30598758216056     0.25941126669512     0.43460115114432
                 166    -0.00014589601540    -0.00068426502130     0.00052795876766     0.30530900679028     0.25949286067454     0.43519813253518
                 167    -0.00004544227455     0.00086352737759    -0.00113681172671     0.30583510127827     0.25808848992261     0.43607640879912
                 168     0.00027328345704    -0.00103639362591     0.00133428099325     0.30581739095826     0.25800425744693     0.43617835159481
                 169    -0.00053259759725     0.00165500443417    -0.00016515760706     0.30215221529627     0.26335133452257     0.43449645018116
                 170    -0.00026177198202    -0.00205469267495     0.00055150672625     0.30389562964027     0.26270377145317     0.43340059890656
                 171    -0.00075059555276    -0.00149857166792    -0.00014304992722     0.30313449001017     0.26284788122691     0.43401762876292
                 172     0.00020266244935     0.00411087064471    -0.00099596387396     0.29910211832999     0.26634624949586     0.43455163217415
                 173     0.00073929069918    -0.00230427863163     0.00010786117740     0.31063344330139     0.25244170627055     0.43692485042805
                 174     0.00057769888129    -0.00098560160303     0.00000898932371     0.30966299854405     0.25213138146390     0.43820561999205
                 175     0.00029203781721     0.00122704644394     0.00013967909556     0.30513110111012     0.25905313078062     0.43581576810926
                 176    -0.00045372028050     0.00024099759431     0.00037074331167     0.30610898728716     0.25832589834601     0.43556511436682
                 177    -0.00074100636710     0.00094752129219     0.00082083984143     0.31074489964012     0.25249205647570     0.43676304388418
                 178     0.00023305357622    -0.00018847663990    -0.00001162685147     0.30752013238359     0.25485899721956     0.43762087039685
                 179    -0.00032802337812    -0.00277394271772     0.00154177734594     0.30775342649616     0.25442080222091     0.43782577128293
                 180    -0.00012540606956     0.00176333298099    -0.00029783084123     0.30774628550446     0.25448886582568     0.43776484866986
                 181    -0.00044429177912     0.00015363659092     0.00064325351770     0.30357806869204     0.25993432305221     0.43648760825575
                 182     0.00044330567129     0.00106309428591    -0.00011033488960     0.30451612854110     0.25979316671274     0.43569070474616
                 183    -0.00055950528101     0.00108160620638     0.00057006657494     0.30871414854390     0.25349498498560     0.43779086647049
                 184    -0.00107803768987    -0.00350559855690     0.00041584391579     0.30412388787155     0.25664303307253     0.43923307905592
                 185     0.00003038839106     0.00152040662200    -0.00080532499772     0.31332819102919     0.24660172278981     0.44007008618100
                 186     0.00009029450356     0.00106859463152    -0.00039094204182     0.31373665630340     0.24752947348841     0.43873387020818
                 187     0.00055004387300    -0.00032163796914     0.00016492991756     0.30845147876962     0.25330582908645     0.43824269214393
                 188    -0.00022145815560    -0.00184530352430     0.00003845352421     0.30973339186680     0.25314728828765     0.43711931984555
                 189    -0.00011799105279     0.00266008690489    -0.00001419991117     0.30825048325057     0.25338414687516     0.43836536987427
                 190     0.00009016499186    -0.00100111239241    -0.00027836541601     0.31041320366473     0.25253499201003     0.43705180432523
                 191     0.00046680344638    -0.00058810329584     0.00018637630670     0.31216220266950     0.24986725859026     0.43797053874025
                 192    -0.00052968232121    -0.00026617553046    -0.00047411160582     0.30990671416189     0.25200231437685     0.43809097146125
                 193    -0.00079641517067     0.00149360169108    -0.00085142640855     0.30759675279041     0.25574476243092     0.43665848477866
                 194     0.00030543945151    -0.00134092878779     0.00002732581796     0.30955425748842     0.25417845891044     0.43626728360114
                 195    -0.00048677110717     0.00055186867653     0.00054713389652     0.30797686044477     0.25587331894131     0.43614982061392
                 196     0.00058258242390     0.00158344280387    -0.00076149739486     0.30695297513978     0.25593645326940     0.43711057159083
                 197     0.00042894594917    -0.00176064928356     0.00012356779391     0.30868737660085     0.25276636451192     0.43854625888723
                 198    -0.00027048617912     0.00177504255473     0.00121605579442     0.30437606561524     0.25693137331646     0.43869256106830
                 199     0.00008096391034     0.00132131186867    -0.00034209288906     0.31774340309619     0.24199289437603     0.44026370252777
                 200     0.00037824907381    -0.00272507713077    -0.00048766840316     0.31541862368824     0.24356407709265     0.44101729921911
                 201    -0.00073677470916     0.00016439483135     0.00042705873042     0.31375932239540     0.24640933147349     0.43983134613111
                 202     0.00002023266080     0.00190016703882    -0.00034957444342     0.31056310898410     0.24836433826312     0.44107255275277
                 203     0.00038230464743    -0.00075228439807    -0.00053120401152     0.31829027946514     0.23904592067011     0.44266379986475
                 204    -0.00002505565623    -0.00051147774644     0.00027500036404     0.32035964938480     0.23777046462786     0.44186988598733
                 205     0.00042503072310     0.00126613117144    -0.00036594640794     0.31336926394540     0.24584685426623     0.44078388178837
                 206    -0.00040568663207    -0.00026940023220     0.00076912507804     0.31549496763265     0.24468877002294     0.43981626234441
                 207     0.00073037307669     0.00145341226527     0.00042623961241     0.31246929728721     0.24844006860281     0.43909063410998
                 208     0.00009860435252    -0.00199626138635     0.00043535114465     0.31263037899842     0.24738762035709     0.43998200064448
                 209    -0.00023334386459    -0.00076557984885     0.00045161597213     0.31251035234292     0.24671280431698     0.44077684334010
                 210     0.00011772370313     0.00056023247245    -0.00090549354685     0.31212452203222     0.24744064567282     0.44043483229495
                 211     0.00025837424798     0.00004550455860     0.00004544751135     0.31444495360628     0.24548970474257     0.44006534165115
                 212    -0.00084605313563     0.00026464901063     0.00084221242538     0.31396513624385     0.24558372216903     0.44045114158712
                 213    -0.00028887276580     0.00087704831290    -0.00052658485110     0.31131264820540     0.24758727019906     0.44110008159554
                 214    -0.00037908766905    -0.00237016482428    -0.00033663135597     0.31257758730914     0.24678917062360     0.44063324206726
                 215    -0.00019121739250     0.00127202406665     0.00068194705668     0.30879937598192     0.25115543308795     0.44004519093012
                 216    -0.00044223482539    -0.00179290515654    -0.00056861130443     0.31093389299015     0.25001952311996     0.43904658388989
                 217     0.00053727262286     0.00417350875555    -0.00082892205773     0.31011147828474     0.25098677274171     0.43890174897355
                 218     0.00042978856896    -0.00149564551052    -0.00002591964119     0.31076404306269     0.25112826530749     0.43810769162981
                 219    -0.00011117156986    -0.00206905108272     0.00015530743368     0.30713007154918     0.25463639806354     0.43823353038728
                 220    -0.00020790452113    -0.00036646244844    -0.00060600522852     0.30682443180599     0.25533180290017     0.43784376529384
                 221     0.00002329907941     0.00101064382140    -0.00000961812213     0.31070690744082     0.25127820566314     0.43801488689605
                 222     0.00003776754917     0.00032333367075    -0.00013351007967     0.30885773411921     0.25289962749898     0.43824263838181
                 223     0.00010655159370     0.00005238181886    -0.00035838827694     0.31482444404675     0.24574855805388     0.43942699789937
                 224    -0.00104016211640    -0.00010620979102     0.00111021795794     0.31384430972165     0.24620623120085     0.43994945907750
                 225     0.00030791193516     0.00163630674415     0.00021894427015     0.31054303384909     0.25076688875837     0.43869007739253
                 226     0.00051360408447    -0.00167284301461     0.00100676020610     0.31125562565367     0.25078625420148     0.43795812014485
                 227    -0.00005763189143     0.00025857256402    -0.00047355610071     0.31230549195324     0.24865518767480     0.43903932037196
                 228    -0.00010190872250    -0.00171096978060    -0.00085619982279     0.30856530709424     0.25067927029507     0.44075542261069
                 229     0.00019728234413     0.00013296855764    -0.00055241443531     0.31919806386147     0.23897145303837     0.44183048310016
                 230    -0.00000819155646     0.00254050870656    -0.00088705923276     0.31874831136810     0.23942738333359     0.44182430529831
                 231     0.00036675633430     0.00026372173845     0.00167464235834     0.30673115630707     0.25389738607212     0.43937145762081
                 232    -0.00047200754316    -0.00071029563942    -0.00045771530413     0.31381795949489     0.24881899258179     0.43736304792332
                 233     0.00013153291946     0.00146702907807     0.00116584873185     0.30733723013716     0.25605965346537     0.43660311639747
                 234    -0.00006043995566    -0.00278377195803     0.00124252617302     0.30596397179443     0.25660209958178     0.43743392862379
                 235     0.00043884791171     0.00100435459753    -0.00044381760218     0.31441659087716     0.24638732479478     0.43919608432807
                 236     0.00037605850642     0.00102476580679     0.00049032825204     0.31780911717468     0.24323907462070     0.43895180820462
                 237     0.00010908825198    -0.00347980458675     0.00047679399948     0.30185921659518     0.26215402063981     0.43598676276500
                 238    -0.00037049452214     0.00111382079993    -0.00027720086954     0.30732432110671     0.25847016864666     0.43420551024663
                 239     0.00061094652385     0.00165529789761    -0.00022792017791     0.30402004782274     0.26166716285925     0.43431278931801
                 240    -0.00011410653349    -0.00206434088192     0.00019286606202     0.30051742173499     0.26329950282074     0.43618307544427
                 241    -0.00054703081069    -0.00160517854502    -0.00015761666406     0.31364616265770     0.24853661950454     0.43781721783775
                 242    -0.00051330889356     0.00217147500571    -0.00047877207813     0.31312338624461     0.24851583559400     0.43836077816139
                 243     0.00040419323272    -0.00005724938586    -0.00047229390556     0.30313529151997     0.26077784721423     0.43608686126580
                 244     0.00014022325331     0.00027770953770    -0.00039580671303     0.30272227802990     0.26129769933350     0.43598002263660
                 245    -0.00001438771389     0.00008906182238     0.00031941969081     0.31182757126183     0.24993872592149     0.43823370281668
                 246     0.00037343902006    -0.00250197998541     0.00010287282964     0.30940607369548     0.25113071261594     0.43946321368859
                 247    -0.00010785395398     0.00051027723374     0.00117047045259     0.30506111590995     0.25853190573806     0.43640697835199
                 248    -0.00034341068506    -0.00010699360223     0.00028130778515     0.30466042012615     0.25815583791861     0.43718374195524
                 249    -0.00020148049400     0.00143654802220    -0.00026601964595     0.31696267699140     0.24297588084269     0.44006144216592
                 250    -0.00006834044562     0.00018627273881    -0.00097932232252     0.31554498722563     0.24379239743344     0.44066261534093
                 251    -0.00040794030391    -0.00127854996564    -0.00009758806944     0.30321121267058     0.25989715744965     0.43689162987977
                 252     0.00032606470841    -0.00124187207664    -0.00057855150785     0.30443050807688     0.25940527026014     0.43616422166299
                 253     0.00079317761612     0.00316120090840     0.00021771168951     0.31396558123857     0.24656041053832     0.43947400822310
                 254    -0.00032143825830    -0.00046782162000     0.00007658238426     0.31191370758188     0.24787958171200     0.44020671070612
                 255     0.00034275096252     0.00026445526141     0.00054095706796     0.30925333954702     0.25085364814367     0.43989301230931
                 256    -0.00018962127786    -0.00012922253924    -0.00050116888381     0.31468414056195     0.24783478957699     0.43748106986105
                 257     0.00071984482030    -0.00116250007561     0.00031241712492     0.30627128374196     0.25835361514570     0.43537510111234
                 258     0.00035371568540    -0.00112958875030     0.00056601286958     0.30812156527792     0.25646993386096     0.43540850086112
                 259    -0.00037011716840     0.00171291357814     0.00007476332881     0.30776213292090     0.25651259196011     0.43572527511899
                 260     0.00043109310117     0.00096407243879     0.00105097325653     0.30291015202785     0.25993065521231     0.43715919275984
                 261     0.00030127893273     0.00094553419287    -0.00003814921169     0.31892454500563     0.24168938110232     0.43938607389205
                 262    -0.00075133708770    -0.00066047005701     0.00030613169040     0.31669508233374     0.24313379690614     0.44017112076012
                 263    -0.00006097023134     0.00003058943369    -0.00047177957083     0.30507985311187     0.25762439892790     0.43729574796023
                 264     0.00057893044850     0.00027932876891    -0.00011291579877     0.30680360699389     0.25669661330313     0.43649977970299
                 265     0.00052071575173     0.00060112652396     0.00081924207135     0.31614499944875     0.24436984417601     0.43948515637524
                 266     0.00066723122235    -0.00128575811469    -0.00030482890718     0.30973790734352     0.24969752465256     0.44056456800392
                 267    -0.00074826054945     0.00068078492455    -0.00066085929639     0.32033124837870     0.23815772871964     0.44151102290166
                 268     0.00012059954847    -0.00093423648917    -0.00065953750937     0.31814093083742     0.24072788575124     0.44113118341134
                 269     0.00025584234153     0.00000197168554     0.00012251320356     0.31317835238812     0.24752269818450     0.43929894942737
                 270    -0.00019091962144    -0.00039824618733    -0.00110725303528     0.31638715022104     0.24489259627016     0.43872025350880
                 271    -0.00024373024824     0.00019999357179    -0.00033105377974     0.31221404911651     0.24716941007995     0.44061654080354
                 272     0.00033758541653     0.00115832970893     0.00035312326814     0.31096662531277     0.24778505003199     0.44124832465524
                 273     0.00030591150207    -0.00143085717921    -0.00028510549984     0.32226025931173     0.23483240227633     0.44290733841194
                 274     0.00079594305278     0.00001634914542    -0.00057697738075     0.31982676509518     0.23681531498528     0.44335791991953
                 275     0.00014113655894    -0.00041024478447    -0.00016802061984     0.31280295944568     0.24653966117867     0.44065737937565
                 276    -0.00015622036788     0.00161616587425     0.00053204366170     0.31535791936665     0.24502391901854     0.43961816161481
                 277    -0.00040721691098    -0.00022865234454    -0.00089000277434     0.31163286137055     0.24787985819177     0.44048728043768
                 278     0.00031564855599     0.00101795619203     0.00016515135991     0.31076656839028     0.24830963111060     0.44092380049912
                 279     0.00004931726346    -0.00228541154806     0.00037276503311     0.32033558848537     0.23829420590418     0.44137020561045
                 280    -0.00004591242624     0.00033401763588    -0.00090229505445     0.32225792943307     0.23720011150318     0.44054195906375
                 281     0.00025369257204     0.00059430659304     0.00034233276541     0.30233311644527     0.25996967860771     0.43769720494702
                 282    -0.00052188286531     0.00013655643144     0.00053705494915     0.30873929108482     0.25576842810279     0.43549228081239
                 283     0.00053289652408    -0.00080527683329     0.00058948478021     0.31100570655560     0.25174809757045     0.43724619587396
                 284    -0.00101649002429    -0.00069094249092     0.00051528439526     0.30621157756634     0.25526357079269     0.43852485164097
                 285    -0.00056459687422     0.00209834943751    -0.00098359774608     0.31629016531892     0.24355798266696     0.44015185201412
                 286     0.00048952599980     0.00339668040037     0.00055671218998     0.31666940141284     0.24333843937981     0.43999215920734
                 287     0.00009989947986    -0.00177829296169     0.00020381494933     0.31084311373455     0.25110299446321     0.43805389180223
                 288    -0.00003777226114    -0.00113309344695    -0.00019820890137     0.30999223589729     0.25168179989905     0.43832596420366
                 289     0.00055440484832     0.00102689772620     0.00030876966454     0.31391701768641     0.24590810181553     0.44017488049806
                 290     0.00032084948934     0.00143993782621    -0.00009131370108     0.31479358114677     0.24427181939902     0.44093459945421
                 291    -0.00011017169224    -0.00099834555408    -0.00074274672515     0.31107585923496     0.24719966275631     0.44172447800873
                 292    -0.00025212699205    -0.00053755613823     0.00036124160594     0.31327440261778     0.24648207621590     0.44024352116631
                 293     0.00018622514840     0.00385167487572     0.00086148541219     0.30866296501187     0.25342263677225     0.43791439821587
                 294    -0.00006200806110    -0.00473491922487    -0.00073522605363     0.30924185807657     0.25386951187414     0.43688863004929
                 295    -0.00016473900905    -0.00052437878085     0.00131742020184     0.31212514910493     0.24989319979161     0.43798165110346
                 296     0.00041555433206     0.00082827356832     0.00044069393523     0.30968866025414     0.25154374682905     0.43876759291681
                 297    -0.00023850640227    -0.00127551873165    -0.00007430835534     0.31590108378114     0.24556934355295     0.43852957266590
                 298     0.00021395438989     0.00187623037427    -0.00014152053765     0.30626562034501     0.25276556099519     0.44096881865980
                 299     0.00007728349356     0.00295498964175     0.00057532659749     0.34038273943308     0.22198849181456     0.43762876875236
                 300    -0.00077547434516    -0.00186253558957     0.00010264938795     0.26352767479723     0.27532342182049     0.46114890338228
 l=         400
                   1     0.00038193134879     0.00146211192353    -0.00026502610874     0.20330362428690     0.34787688324525     0.44881949246785
                   2    -0.00038483169507    -0.00131260315182    -0.00036600397182     0.32562285811886     0.26398264079457     0.41039450108657
                   3     0.00038440259704     0.00131206783177    -0.00004272406067     0.29012966592601     0.29207066681416     0.41779966725983
                   4     0.00027226806608    -0.00102299203519    -0.00037523857312     0.29847470278589     0.28527499341719     0.41625030379692
                   5     0.00030115427836    -0.00186461490948    -0.00111924631371     0.29438787017058     0.28774347108236     0.41786865874706
                   6    -0.00037976341632    -0.00018275295541    -0.00017545686455     0.29470168607830     0.28759288062749     0.41770543329421
                   7     0.00021051250525     0.00079047555270     0.00075656467989     0.29398792402612     0.28999892977654     0.41601314619735
                   8     0.00007039213688     0.00163001160297    -0.00059401384285     0.29546712665905     0.28889731935892     0.41563555398202
                   9    -0.00009225525807     0.00028740994718    -0.00004221999027     0.29516192361411     0.28953014139261     0.41530793499328
                  10    -0.00073514822907     0.00053892380687    -0.00047051236082     0.29512821749514     0.28903630562665     0.41583547687820
                  11    -0.00092050554083     0.00026668644714    -0.00052034415762     0.29650080317807     0.28501171010613     0.41848748671580
                  12     0.00048127766433    -0.00084383994012    -0.00076623236072     0.29349029622054     0.28824127495308     0.41826842882638
                  13    -0.00015749350463     0.00078723184393     0.00118582527856     0.29710295526071     0.28537408194385     0.41752296279545
                  14     0.00001669513254    -0.00148555340955     0.00061180600992     0.29768297798412     0.28469056515944     0.41762645685644
                  15    -0.00048935163749    -0.00000833051109    -0.00114642832889     0.29483453590813     0.28670441035484     0.41846105373702
                  16    -0.00029842204051     0.00222773671809    -0.00072860803198     0.29350908237796     0.28813448057351     0.41835643704852
                  17    -0.00053295126099    -0.00147957258275    -0.00103383195079     0.29633278107190     0.28402518117656     0.41964203775155
                  18    -0.00061632831349    -0.00050409556172     0.00082657718690     0.29906770160833     0.28276120092916     0.41817109746250
                  19    -0.00037544489528    -0.00064988992488     0.00004860850610     0.29338833759387     0.29052702570944     0.41608463669668
                  20    -0.00007675839376    -0.00275853850331    -0.00061612879478     0.29530275160480     0.28959334844138     0.41510389995383
                  21     0.00005947759274     0.00428086902075     0.00023662304818     0.29824311710930     0.28516402576908     0.41659285712162
                  22     0.00055140973625    -0.00515643424018     0.00096406683205     0.29331252337032     0.28831518910814     0.41837228752154
                  23     0.00066682175337     0.00082261410772    -0.00058332170927     0.29677145191364     0.28468648420669     0.41854206387967
                  24    -0.00012562820280     0.00028440513760     0.00074194668952     0.29933647355347     0.28197877096478     0.41868475548175
                  25    -0.00005541129891     0.00071921525902     0.00014009720322     0.29522700240544     0.28790162390614     0.41687137368842
                  26    -0.00071425573422    -0.00245141641699    -0.00060152776964     0.29628248229515     0.28775257879102     0.41596493891383
                  27    -0.00028159241042     0.00201192553707     0.00057215049150     0.29668079902775     0.28737610404711     0.41594309692514
                  28     0.00077381637289     0.00181016162952     0.00018710392806     0.29363528435270     0.28834930786247     0.41801540778482
                  29     0.00021744655469    -0.00300305789525    -0.00156454170152     0.29640453933818     0.28507196034932     0.41852350031250
                  30    -0.00024203942997     0.00230931468537     0.00122425463022     0.29795218354970     0.28468887219172     0.41735894425857
                  31     0.00013812522809    -0.00008170402566    -0.00059527777751     0.29287741342841     0.29123827173524     0.41588431483635
                  32     0.00024712093262    -0.00455807027328     0.00158846362740     0.29620028699228     0.28927600221272     0.41452371079500
                  33     0.00026422422112     0.00392884476224    -0.00052883429845     0.29521893318253     0.28880325361995     0.41597781319752
                  34    -0.00079235770789     0.00034843525999     0.00215045139929     0.29587892535831     0.28706018776814     0.41706088687355
                  35    -0.00019272487383    -0.00005468863909    -0.00248559571680     0.29567770999397     0.28809299833728     0.41622929166875
                  36     0.00020341518763    -0.00038960026130     0.00170289350433     0.29507742162617     0.28910003935554     0.41582253901829
                  37     0.00022196493572     0.00060864658254    -0.00010325601159     0.29676998666797     0.28840114059627     0.41482887273576
                  38    -0.00037373385658    -0.00088571232312    -0.00002609712428     0.29729720284707     0.28720587148892     0.41549692566401
                  39    -0.00052300813536     0.00012774019818    -0.00108071115015     0.29517935143816     0.28951432570121     0.41530632286064
                  40     0.00014350124807    -0.00007793862572     0.00042264820359     0.29383736935554     0.28926050974269     0.41690212090177
                  41     0.00049695531323     0.00039435351914    -0.00047264120969     0.29524628958259     0.28694300717694     0.41781070324046
                  42    -0.00038422961428     0.00071942458448     0.00088146136598     0.29508432002470     0.28765829565866     0.41725738431664
                  43     0.00086567347257     0.00007707899306     0.00204344209305     0.29485525805911     0.28890669268947     0.41623804925142
                  44    -0.00007829007376    -0.00161971708186    -0.00001134605497     0.29596825147754     0.28847222270501     0.41555952581745
                  45     0.00067510115443     0.00069935758409    -0.00089231903129     0.29667693948872     0.28677211052915     0.41655094998213
                  46     0.00028503047985    -0.00031207532533     0.00084363564833     0.29501414895824     0.28819525174247     0.41679059929929
                  47    -0.00036707721729     0.00082931040517     0.00169992518649     0.29458464664698     0.28824484879366     0.41717050455936
                  48    -0.00033235213833     0.00026560281062     0.00056672854958     0.29467204046289     0.28843509046724     0.41689286906988
                  49     0.00012940355295    -0.00156225606988    -0.00012248792415     0.29538359655977     0.28858392591971     0.41603247752052
                  50    -0.00027577115045    -0.00115453240025    -0.00052030463529     0.29572067133075     0.28889313699122     0.41538619167803
                  51    -0.00020599549714     0.00015461929679    -0.00035762332864     0.29423678387172     0.29059888261505     0.41516433351323
                  52     0.00008470125815     0.00247746055807     0.00080802772831     0.29295164496014     0.29120106573215     0.41584728930771
                  53    -0.00039538736683    -0.00156084006656    -0.00041009560173     0.29688991643289     0.28564667486912     0.41746340869799
                  54     0.00066274396038    -0.00428910680964    -0.00004718895120     0.29582451520623     0.28569515147460     0.41848033331917
                  55    -0.00013269298627     0.00148799157317     0.00099873381325     0.29539495779688     0.28521373728017     0.41939130492295
                  56    -0.00000613379373    -0.00083237830838     0.00052233356506     0.29580964431304     0.28627624222389     0.41791411346307
                  57     0.00021571150209     0.00116892825099    -0.00002946405520     0.29372328423876     0.29061260791058     0.41566410785066
                  58     0.00062867037691     0.00073048308846    -0.00042282620542     0.29653724686365     0.28802088591373     0.41544186722262
                  59     0.00030871183226    -0.00257978353150     0.00152521633617     0.29782240607713     0.28634535392283     0.41583224000004
                  60    -0.00026567595583     0.00042352996082     0.00032579363657     0.29573071379158     0.28818046047338     0.41608882573503
                  61     0.00049992179930     0.00080899859612    -0.00009346215870     0.29355002019239     0.29044956512548     0.41600041468213
                  62     0.00005623262341    -0.00226346843879    -0.00077232051718     0.29381324762989     0.29001507642124     0.41617167594887
                  63    -0.00039921532800     0.00281162603897     0.00090155154664     0.29439765484726     0.28841673239579     0.41718561275695
                  64     0.00043367587619    -0.00272351475681    -0.00048784506399     0.29626639491874     0.28727472028744     0.41645888479383
                  65     0.00068878858700    -0.00027170687291    -0.00092431686108     0.29576804934259     0.28770305832272     0.41652889233469
                  66     0.00013690989597     0.00011063947932    -0.00101420522086     0.29356446275593     0.28959046577825     0.41684507146582
                  67    -0.00009893404481     0.00251037307760    -0.00051443715263     0.29647788539753     0.28576842559599     0.41775368900648
                  68     0.00042798886505     0.00018676242107    -0.00050832953971     0.29528180295825     0.28783787485589     0.41688032218585
                  69     0.00007639863314     0.00031877795026     0.00075829985698     0.29518350933794     0.28919532670305     0.41562116395900
                  70    -0.00036595603740    -0.00083291926346     0.00040685518459     0.29509990019927     0.28863243673352     0.41626766306721
                  71     0.00049388219070    -0.00089600008486     0.00094100750515     0.29486419527627     0.28718777998256     0.41794802474118
                  72     0.00004131593383     0.00121552939264    -0.00200345717702     0.29447469081307     0.28768224452784     0.41784306465909
                  73     0.00010436938545     0.00019121177674    -0.00053325390201     0.29454178233437     0.28652840397075     0.41892981369488
                  74     0.00040025185552     0.00067331875473    -0.00001004845600     0.29477765679711     0.28633171953386     0.41889062366904
                  75     0.00027537845729    -0.00030965597351     0.00004450555764     0.29460854671382     0.28873880825906     0.41665264502712
                  76    -0.00050497528620     0.00173174846432     0.00036678247932     0.29568867288694     0.28778994607501     0.41652138103806
                  77    -0.00002298269030     0.00014867313632    -0.00160432503467     0.29532166305586     0.28811659635507     0.41656174058907
                  78    -0.00006146156115    -0.00010663885591    -0.00013535644572     0.29595175436933     0.28629703278250     0.41775121284816
                  79    -0.00038631814372    -0.00369295741587     0.00049195788867     0.29609606751106     0.28675834748122     0.41714558500772
                  80    -0.00037626188305    -0.00036323934316     0.00151104996731     0.29762770240327     0.28557508361508     0.41679721398165
                  81     0.00022965323887     0.00327972970712     0.00012277073031     0.29321041014106     0.29094217624076     0.41584741361818
                  82     0.00033608372278     0.00015419032975    -0.00033187282222     0.29406399233147     0.28992857655194     0.41600743111659
                  83     0.00032123446064     0.00138455757004    -0.00034975160008     0.29614538087546     0.28726058422332     0.41659403490122
                  84     0.00001219329106    -0.00428332128979     0.00008131996860     0.29435460191215     0.28965468235774     0.41599071573012
                  85     0.00035937287789    -0.00001235570043    -0.00069869791673     0.29636369996359     0.28666764797554     0.41696865206087
                  86    -0.00064434429720     0.00215945455876     0.00011013241502     0.29507645382950     0.28787346478361     0.41705008138690
                  87     0.00042730232101     0.00321731614462     0.00081756876646     0.29530039337702     0.28747128333840     0.41722832328458
                  88    -0.00029414615177    -0.00188651364403    -0.00073264277834     0.29537535326732     0.28656704652080     0.41805760021188
                  89    -0.00041211655626    -0.00055780119901     0.00031053665401     0.29579886505157     0.28601481012984     0.41818632481859
                  90     0.00084347559662    -0.00129382237529    -0.00041190486922     0.29501692676421     0.28722599648988     0.41775707674591
                  91    -0.00087903099087     0.00176246502538    -0.00050674682787     0.29517972217512     0.28743361021809     0.41738666760679
                  92    -0.00025425648677     0.00161320224085    -0.00006970497030     0.29614615557411     0.28663143383108     0.41722241059481
                  93    -0.00018205098900     0.00050830881019    -0.00058188350263     0.29461903938915     0.28792661081470     0.41745434979615
                  94     0.00050946393637    -0.00034525985834     0.00011056372020     0.29536557907160     0.28644377273519     0.41819064819322
                  95     0.00083003511101     0.00028086029554    -0.00047309190718     0.29487870380402     0.28765629531898     0.41746500087700
                  96    -0.00001175553818    -0.00286061193284     0.00072497604483     0.29348138378855     0.28939457570128     0.41712404051018
                  97     0.00041134625077     0.00123945563496    -0.00062620139277     0.29459095119695     0.28756299737924     0.41784605142381
                  98    -0.00026204058376     0.00072464274388     0.00051395600208     0.29488792578160     0.28723709023593     0.41787498398247
                  99    -0.00019291856058     0.00057737425895     0.00089877342513     0.29728351564883     0.28478638532508     0.41793009902608
                 100     0.00018981508618    -0.00012079297912    -0.00171928261403     0.29640716183891     0.28612411908992     0.41746871907118
                 101    -0.00017991155804     0.00020923866089     0.00042009270958     0.29337762190733     0.28943419063701     0.41718818745567
                 102     0.00037991645156     0.00133349760648    -0.00023003803196     0.29345954263910     0.28868174542742     0.41785871193349
                 103    -0.00023269882328    -0.00009322484079    -0.00050952378558     0.29569314551281     0.28533948554269     0.41896736894450
                 104     0.00024379767417     0.00211257657306     0.00067501811328     0.29531541324305     0.28616353800989     0.41852104874706
                 105    -0.00004326053679    -0.00264553877365     0.00029019627063     0.29409250975399     0.28750929174284     0.41839819850317
                 106    -0.00038677639272    -0.00333629400830    -0.00124826607943     0.29529406642961     0.28737540256274     0.41733053100765
                 107    -0.00018531605614     0.00244189983725     0.00018038632451     0.29746677385163     0.28506056725102     0.41747265889735
                 108    -0.00034341261033    -0.00231765787999     0.00043933605481     0.29460828866596     0.28760125416249     0.41779045717155
                 109     0.00049099861433     0.00241631934838     0.00049533745385     0.29570152679960     0.28499521363021     0.41930325957019
                 110    -0.00055213519480     0.00170106732246     0.00050256776705     0.29625903700042     0.28550849847986     0.41823246451971
                 111     0.00005579205933    -0.00164723038521     0.00050362123106     0.29621839886424     0.28513229671005     0.41864930442571
                 112    -0.00058681010979    -0.00045321074042    -0.00011411406636     0.29738240819657     0.28376071582535     0.41885687597808
                 113     0.00057649270717     0.00100647999109     0.00049950666928     0.29476021301040     0.28776968724489     0.41747009974472
                 114    -0.00024528753904    -0.00216186577902    -0.00038738854905     0.29489882054253     0.28743875038425     0.41766242907322
                 115    -0.00016274069138     0.00151684531952     0.00045412399077     0.29557423329314     0.28632681458435     0.41809895212251
                 116    -0.00070790041946    -0.00106644032152     0.00043097294825     0.29464505752545     0.28666883371143     0.41868610876312
                 117     0.00045067933495    -0.00308833337168    -0.00060042962668     0.29645923442853     0.28495269118434     0.41858807438713
                 118    -0.00028022397548     0.00300129111465    -0.00006541808443     0.29682846314923     0.28503269669334     0.41813884015742
                 119     0.00066621050588     0.00132334415988     0.00131546667371     0.29660196284252     0.28663417009198     0.41676386706549
                 120     0.00020259227856    -0.00153491973556     0.00021242536725     0.29781876006249     0.28593463094307     0.41624660899444
                 121     0.00014224961599     0.00041654325687     0.00122443080299     0.29393767516874     0.28899829663220     0.41706402819906
                 122    -0.00016272472340     0.00131411704783    -0.00125951173527     0.29450563415935     0.28826278119214     0.41723158464851
                 123     0.00045256927138    -0.00062847238325    -0.00177365160222     0.29579085072240     0.28675756615944     0.41745158311816
                 124     0.00017335760409    -0.00127432870800     0.00160648270082     0.29444397937871     0.28836839109752     0.41718762952377
                 125    -0.00045212344125     0.00073603037475    -0.00049083294689     0.29496733383842     0.28904281443692     0.41598985172467
                 126     0.00028418573534    -0.00044290136980    -0.00054493443049     0.29512732871921     0.28801360366068     0.41685906762011
                 127     0.00004164709527     0.00127085858947     0.00080050082497     0.29623007593884     0.28612624147767     0.41764368258349
                 128    -0.00001774540340     0.00019909200283    -0.00010161325761     0.29486315024091     0.28631076664107     0.41882608311802
                 129     0.00040316573812    -0.00026563918348    -0.00070381087305     0.29780673085706     0.28307425869559     0.41911901044735
                 130    -0.00036781622706     0.00157583918591    -0.00046204237158     0.29914220264390     0.28264121551129     0.41821658184481
                 131     0.00076132574837    -0.00050266921305     0.00060522015245     0.29442772598564     0.28811273580415     0.41745953821021
                 132     0.00021678968475    -0.00102723287088    -0.00000065780491     0.29654420182505     0.28670440590990     0.41675139226505
                 133     0.00025034235558     0.00102586021778    -0.00048183813948     0.29810191708600     0.28464678981960     0.41725129309440
                 134    -0.00021783658162     0.00223488355475     0.00033574956828     0.29475023927153     0.28699083028981     0.41825893043866
                 135     0.00050086050605    -0.00033668574038    -0.00067436833270     0.30003401633299     0.28053387484818     0.41943210881883
                 136    -0.00015949475626    -0.00080091370663    -0.00137279910122     0.29703594121505     0.28298986582186     0.41997419296309
                 137    -0.00079255194125    -0.00049527216728    -0.00080941492573     0.29420155273300     0.28536873007969     0.42042971718731
                 138     0.00038526887453     0.00179728081166     0.00095480458257     0.29660024684950     0.28350201734219     0.41989773580830
                 139     0.00025395054011    -0.00126182831179    -0.00170411895595     0.29425702296001     0.28626087103704     0.41948210600294
                 140    -0.00014078577476    -0.00015260629516     0.00076974580613     0.29547802362407     0.28437012515991     0.42015185121602
                 141     0.00018523517543     0.00142910671252     0.00028257439582     0.29541472684764     0.28470774945457     0.41987752369780
                 142    -0.00055966092731    -0.00274581751262     0.00064015657804     0.29564219595483     0.28547216410760     0.41888563993757
                 143    -0.00040312697205    -0.00122327009430    -0.00015465691031     0.29580175557782     0.28634745481789     0.41785078960428
                 144     0.00111210931879     0.00133071724410    -0.00006057477836     0.29663775264663     0.28503570315700     0.41832654419638
                 145     0.00050909093128    -0.00077234155312     0.00035518228748     0.29510732673423     0.28681582462134     0.41807684864442
                 146     0.00021711699317     0.00252235332709    -0.00096706048058     0.29476579698000     0.28724716492945     0.41798703809055
                 147     0.00015056610431    -0.00113604821510    -0.00092916284991     0.29575454359415     0.28589764244664     0.41834781395921
                 148    -0.00056556064661    -0.00079904470845    -0.00022371176702     0.29398302481469     0.28709444713050     0.41892252805482
                 149    -0.00000842253511     0.00254528880271     0.00106320326225     0.29874917555188     0.28125970048841     0.41999112395972
                 150     0.00016974546153    -0.00112230339980    -0.00065504693485     0.29814978676174     0.28168575289684     0.42016446034141
                 151    -0.00023492485397    -0.00107344207639    -0.00082892908099     0.29310243349566     0.28835885343789     0.41853871306645
                 152    -0.00021038437027     0.00135818326628    -0.00027497978160     0.29310743873427     0.28752255995419     0.41937000131154
                 153     0.00006108468740    -0.00147312197301    -0.00151884134503     0.29671158626556     0.28305435087618     0.42023406285826
                 154     0.00042395908905     0.00181815124282     0.00105514052546     0.29491872512766     0.28460318017506     0.42047809469728
                 155     0.00006924727890    -0.00357750250762     0.00054732595985     0.29694717616647     0.28384420094646     0.41920862288708
                 156     0.00016581104638     0.00083333755040    -0.00023417815027     0.29848434708204     0.28160960123915     0.41990605167880
                 157    -0.00022228593575    -0.00065104579905     0.00006814269001     0.29533352097702     0.28433039483797     0.42033608418501
                 158    -0.00047433286482     0.00000355077120    -0.00009166478121     0.29370911413016     0.28591001432886     0.42038087154098
                 159     0.00001805912728     0.00109242024858    -0.00005737195846     0.29419836693235     0.28642643075613     0.41937520231152
                 160     0.00076645070549    -0.00005168660579     0.00105293161544     0.29500259191264     0.28468811090887     0.42030929717849
                 161     0.00005578511128    -0.00048922790010    -0.00028801602161     0.29574341329788     0.28306013759156     0.42119644911056
                 162     0.00003736515368    -0.00142450926858     0.00020266092713     0.29579943028298     0.28282444172160     0.42137612799542
                 163     0.00025759768087     0.00303015102575    -0.00020732426081     0.29786471889769     0.28190221433763     0.42023306676468
                 164    -0.00006169736627     0.00141660047785    -0.00036043112365     0.29649612176825     0.28313418998047     0.42036968825129
                 165     0.00019295777504    -0.00365010981299     0.00069755464617     0.29515210454234     0.28457486214961     0.42027303330804
                 166    -0.00017369820639    -0.00093436097499     0.00002381534181     0.29564847051885     0.28280572579807     0.42154580368308
                 167     0.00010270730588    -0.00096818240908     0.00012427904678     0.29619800822367     0.28171170360781     0.42209028816852
                 168     0.00019846349343     0.00113985614506    -0.00084919644902     0.29602984744005     0.28235492382498     0.42161522873497
                 169    -0.00047816800624     0.00116862337726    -0.00064588343738     0.29537564640369     0.28413149384859     0.42049285974772
                 170    -0.00009257238479    -0.00276660830686    -0.00078889815920     0.29591984198755     0.28375469235878     0.42032546565366
                 171     0.00027314839178    -0.00077028023205     0.00039362675096     0.29486633797888     0.28564630686935     0.41948735515176
                 172     0.00027297217842     0.00196285658588    -0.00095745512869     0.29286191781695     0.28617882404187     0.42095925814118
                 173    -0.00025352232899    -0.00070223218211    -0.00023143685270     0.29791732861012     0.27918434227960     0.42289832911027
                 174    -0.00060788211107    -0.00154442724929     0.00171397981976     0.29731835334429     0.27901053709881     0.42367110955689
                 175    -0.00035969772520    -0.00017814239731    -0.00063757948013     0.29349517024582     0.28541679732088     0.42108803243330
                 176     0.00012348410047     0.00272893847243     0.00016051786618     0.29652641444373     0.28281418869814     0.42065939685813
                 177    -0.00005829687968    -0.00011527723377     0.00002565071397     0.29662153992505     0.28151852881730     0.42185993125765
                 178     0.00011526151735     0.00042810201169    -0.00033993168143     0.29380772392932     0.28378577468583     0.42240650138485
                 179    -0.00006977171610    -0.00242939954040     0.00069911500034     0.29569821109278     0.28196805694433     0.42233373196289
                 180    -0.00072106034019     0.00187280484218    -0.00018797883621     0.29559853950699     0.28216167283063     0.42223978766238
                 181    -0.00033349326442    -0.00136587905485     0.00058502518541     0.29553103599243     0.28253231404383     0.42193664996374
                 182    -0.00037285787345     0.00130198041549     0.00014006257147     0.29648068801746     0.28159807147390     0.42192124050864
                 183    -0.00013698001211    -0.00046492420019     0.00080578492555     0.29693473083873     0.28030350130237     0.42276176785890
                 184    -0.00115302859695    -0.00081827859785    -0.00144024333802     0.29293577828746     0.28315766726257     0.42390655444998
                 185    -0.00016382880844     0.00074047459208     0.00042143586308     0.29847719239158     0.27742231035595     0.42410049725247
                 186    -0.00004091367005    -0.00080041024134    -0.00024232158567     0.29805663741124     0.27826068236508     0.42368268022368
                 187    -0.00001659247070     0.00240999784960    -0.00140064411170     0.29463974729600     0.28337028613204     0.42198996657196
                 188    -0.00003915281592    -0.00213588686140     0.00038647480763     0.29569868685572     0.28247122105215     0.42183009209213
                 189    -0.00042484857897     0.00295615179142     0.00040651411287     0.29528019653268     0.28270951069099     0.42201029277632
                 190    -0.00055060361455    -0.00033154135672    -0.00008610111629     0.29556951916717     0.28241912688124     0.42201135395159
                 191     0.00002295398713     0.00014334866010    -0.00095350890391     0.29876404592273     0.27858198812938     0.42265396594789
                 192     0.00005654878240     0.00199143122272     0.00131532694069     0.29909999514190     0.27848401801964     0.42241598683846
                 193     0.00006762067782     0.00062271684104    -0.00004442407700     0.29427804562333     0.28376174105638     0.42196021332029
                 194     0.00088437640136    -0.00171585333916     0.00078363479918     0.29685844263269     0.28127122762274     0.42187032974457
                 195     0.00004265903792    -0.00087267475892     0.00079813175848     0.29724621314019     0.28121485545516     0.42153893140465
                 196     0.00006172811460     0.00215703725456     0.00104049812458     0.29513626605258     0.28287144994244     0.42199228400499
                 197    -0.00045269858490    -0.00079741823021    -0.00121369891119     0.29669948118752     0.28039467536196     0.42290584345051
                 198    -0.00007038592529     0.00205132511927     0.00082422289376     0.29421051574248     0.28175497418483     0.42403451007269
                 199    -0.00055726805220    -0.00114806934303     0.00006693007388     0.30071125832994     0.27556856669002     0.42372017498003
                 200    -0.00019762554096    -0.00334104904389     0.00050632803117     0.29816957673392     0.27720964587015     0.42462077739593
                 201    -0.00030987778773     0.00122954830926     0.00034335069495     0.29604087866565     0.28046738922387     0.42349173211049
                 202     0.00031139015177     0.00115202685524    -0.00045625752737     0.29625384125873     0.27866490687618     0.42508125186509
                 203     0.00026663761593    -0.00024983154130    -0.00004608325752     0.29859451325240     0.27496769288958     0.42643779385802
                 204    -0.00046623650290    -0.00220556919408    -0.00097562013288     0.29765618489386     0.27503005773941     0.42731375736673
                 205    -0.00007910621485     0.00239333014826    -0.00029742537763     0.29791372168321     0.27682941446895     0.42525686384784
                 206    -0.00020108742704     0.00081474661980    -0.00044008335920     0.30017908723287     0.27571910562039     0.42410180714674
                 207    -0.00017575239390    -0.00132759955054    -0.00090946030178     0.29570752894126     0.28066263509676     0.42362983596197
                 208    -0.00041101289528     0.00044186454367     0.00000281672401     0.29901982223470     0.27706568821351     0.42391448955179
                 209     0.00031667381056    -0.00002627499532     0.00086535354588     0.29662628208458     0.27883664510553     0.42453707280989
                 210     0.00012624171209    -0.00050245322862    -0.00059062983075     0.29496099329898     0.28139168532825     0.42364732137277
                 211     0.00015746926005     0.00171330332735    -0.00054165289534     0.29748698706256     0.27940327927270     0.42310973366474
                 212    -0.00018652019823     0.00052497081697    -0.00018080422564     0.29733100078023     0.27873033059571     0.42393866862406
                 213    -0.00003155347060    -0.00064816125826     0.00066773296834     0.29526805320551     0.28003286045484     0.42469908633965
                 214    -0.00021400345250    -0.00229941523252     0.00046764996300     0.29622201965331     0.27921282558499     0.42456515476169
                 215     0.00009010716756     0.00220833523981    -0.00022853456562     0.29555334665305     0.28010134609148     0.42434530725547
                 216     0.00039538420873    -0.00078255418241     0.00032604202830     0.29660863681379     0.27949291589737     0.42389844728885
                 217    -0.00044207654115     0.00162263908223     0.00024716888225     0.29611281287000     0.28108901725635     0.42279816987365
                 218     0.00036833275086     0.00125694940579    -0.00042574930607     0.29746025160853     0.28002078885108     0.42251895954039
                 219    -0.00028961476136    -0.00273544314431    -0.00021959956690     0.29491662503415     0.28263325467916     0.42245012028669
                 220     0.00013385166892    -0.00058354552581    -0.00035292335375     0.29307207801850     0.28424571962374     0.42268220235776
                 221     0.00012944795891     0.00103549790155    -0.00045723665463     0.29517463791726     0.28130417065808     0.42352119142466
                 222    -0.00053234352944    -0.00094148605258    -0.00040778214811     0.29493742221084     0.28137694467259     0.42368563311657
                 223    -0.00021172246049     0.00073600890477     0.00117927886449     0.29799077224014     0.27814035338197     0.42386887437788
                 224    -0.00054976193863    -0.00127754189562     0.00122472920291     0.29677664279392     0.27903354371770     0.42418981348838
                 225    -0.00034418254107     0.00026252348430    -0.00129894307686     0.29629915239328     0.28028568429233     0.42341516331439
                 226    -0.00014811162961    -0.00184184041070     0.00179729740061     0.29596780727490     0.28062753216967     0.42340466055543
                 227     0.00020623101030    -0.00013077992884    -0.00110081128271     0.29611170529074     0.27951766805849     0.42437062665077
                 228    -0.00030165770748    -0.00200808110697     0.00029102790626     0.29566813983793     0.27973238921820     0.42459947094388
                 229     0.00005853732342    -0.00065461587751     0.00003881566464     0.29936644403692     0.27510450511115     0.42552905085193
                 230     0.00024420828268     0.00361898474555    -0.00108150832339     0.29788530554655     0.27707426797038     0.42504042648307
                 231     0.00044102938245    -0.00141211988604     0.00058443465396     0.29532037399319     0.28085697877798     0.42382264722883
                 232    -0.00023901738499     0.00129823835576     0.00023870818342     0.29841274363305     0.27882747329095     0.42275978307600
                 233     0.00040429059396     0.00029024943800     0.00043746371341     0.29445255537672     0.28324164111218     0.42230580351110
                 234    -0.00031042727574    -0.00146940227881     0.00031107115220     0.29314541098470     0.28397679765674     0.42287779135855
                 235     0.00084180599146     0.00316424459155     0.00042532663433     0.29892418027386     0.27695169421014     0.42412412551600
                 236     0.00116316359443    -0.00046518544907     0.00097430755383     0.30065736528556     0.27480519426418     0.42453744045026
                 237     0.00012472390638    -0.00344517776746     0.00030572611912     0.29255853274714     0.28529630862308     0.42214515862979
                 238    -0.00024009663064     0.00353214317650    -0.00050419712191     0.29556522958566     0.28295654191555     0.42147822849879
                 239    -0.00009443145783     0.00036722801385     0.00041416308545     0.29654186597157     0.28144811818096     0.42201001584747
                 240     0.00030531154797    -0.00052850503379    -0.00030932663807     0.29428209995863     0.28348450429907     0.42223339574230
                 241     0.00046710070173    -0.00219762943672    -0.00044251119119     0.30005090250962     0.27676017899301     0.42318891849738
                 242     0.00038278610921     0.00018419547453    -0.00023333561758     0.29961969177045     0.27750476358901     0.42287554464054
                 243    -0.00014036631315     0.00108551573981     0.00081278132570     0.29338133330744     0.28444325916344     0.42217540752912
                 244     0.00004591030182    -0.00023776801330    -0.00003425194372     0.29481016809154     0.28362785956910     0.42156197233936
                 245     0.00004052935826     0.00129155715617    -0.00086354080151     0.29624023649050     0.28056939457116     0.42319036893834
                 246    -0.00096236376823    -0.00251555328593     0.00190433437694     0.29420115013868     0.28257196921433     0.42322688064699
                 247    -0.00052152912353     0.00083201235736     0.00077959359261     0.29580816508907     0.28153111560446     0.42266071930648
                 248    -0.00035213984633     0.00031372171933     0.00106323588043     0.29434664392335     0.28236637149470     0.42328698458195
                 249    -0.00004858489396     0.00299374142732    -0.00168774929947     0.29972517048808     0.27532130378009     0.42495352573183
                 250     0.00007145894357     0.00147825845711     0.00020938426299     0.30015478378413     0.27471636179911     0.42512885441676
                 251     0.00088011867177    -0.00260762252931     0.00016745470182     0.29344510167552     0.28358861552453     0.42296628279995
                 252    -0.00040576552607    -0.00049787012780     0.00039249560501     0.29617855985140     0.28170999807135     0.42211144207725
                 253    -0.00031526114371     0.00250078270867    -0.00147972561835     0.29946188152771     0.27670493067649     0.42383318779580
                 254    -0.00004816826217    -0.00136632348739    -0.00022931252074     0.29714521340120     0.27846060324098     0.42439418335782
                 255    -0.00065493204452    -0.00155744082090     0.00019670844193     0.29516526422207     0.27948099621408     0.42535373956385
                 256    -0.00002080631858     0.00011168960429     0.00176493369693     0.29724121705121     0.27943629031105     0.42332249263774
                 257     0.00001630353888     0.00026491185820     0.00078907087862     0.29500451681931     0.28364765650522     0.42134782667547
                 258    -0.00053019441302    -0.00001928832050    -0.00069025558345     0.29550312902717     0.28429790685160     0.42019896412124
                 259     0.00015112264029    -0.00029582760244    -0.00053879919764     0.29561919438339     0.28290966665050     0.42147113896610
                 260    -0.00079886576730     0.00069261923569     0.00186631238544     0.29278195443882     0.28404681541243     0.42317123014875
                 261    -0.00061499869687     0.00063703699324    -0.00144927192149     0.29823166569209     0.27811728349754     0.42365105081037
                 262    -0.00024782883109     0.00106350479993    -0.00017929600684     0.29760749027334     0.27855795037244     0.42383455935422
                 263    -0.00071010484548    -0.00304442947076    -0.00039903431796     0.29296677434256     0.28475253716209     0.42228068849535
                 264     0.00018840705880     0.00038055886195     0.00041662200214     0.29379798869941     0.28374492458555     0.42245708671504
                 265     0.00067936840459     0.00156906967565     0.00041595142268     0.29887622875034     0.27735064754708     0.42377312370259
                 266     0.00036597571241    -0.00311111064168    -0.00103664245018     0.29567941863155     0.27924093862448     0.42507964274397
                 267    -0.00059563647459     0.00063996779618    -0.00029035367809     0.29835175755186     0.27616067805729     0.42548756439085
                 268    -0.00032929735770    -0.00036609334247    -0.00090894129751     0.29877251871775     0.27552214062358     0.42570534065867
                 269     0.00008541238169     0.00038222877858    -0.00030532903470     0.29648294919949     0.27928131888168     0.42423573191884
                 270    -0.00056233277049    -0.00081921242922    -0.00031370472040     0.29803220213211     0.27802264595163     0.42394515191626
                 271    -0.00034267075707    -0.00040873710376     0.00071835447027     0.29519375060035     0.28038882161474     0.42441742778491
                 272     0.00024103039645    -0.00157120802063    -0.00008007267303     0.29299439389037     0.28179835819678     0.42520724791286
                 273     0.00014760816606     0.00271033483663    -0.00017625687864     0.30039629583686     0.27315912780276     0.42644457636037
                 274     0.00008952885601    -0.00249048723744    -0.00025523460649     0.29849440031289     0.27441222910705     0.42709337058006
                 275     0.00030083016582     0.00129077714400    -0.00054604164199     0.29677742795922     0.27826505980120     0.42495751223957
                 276    -0.00038912965037    -0.00054831603459    -0.00000496291731     0.29937981804256     0.27601334772888     0.42460683422855
                 277     0.00033815080219     0.00205588282541    -0.00024412878259     0.29735607769017     0.27833886331172     0.42430505899811
                 278     0.00021189283072    -0.00051534766208    -0.00102381411735     0.29679207603184     0.27831752126638     0.42489040270178
                 279     0.00021532423488    -0.00197775476065     0.00099210821899     0.29969677025842     0.27473733030695     0.42556589943462
                 280     0.00008879727672     0.00034672419158    -0.00044236735772     0.30112604986442     0.27384922915234     0.42502472098324
                 281     0.00041377975709     0.00154846442712    -0.00000587678367     0.29097367644074     0.28671539787376     0.42231092568549
                 282    -0.00025863643147    -0.00017071970487    -0.00039990920777     0.29620477159750     0.28269977961596     0.42109544878653
                 283    -0.00060189177058    -0.00176837894460     0.00041415548109     0.29552082416946     0.28266223384398     0.42181694198656
                 284    -0.00050551468221    -0.00235408986243    -0.00034889877606     0.29328986150039     0.28427562251529     0.42243451598432
                 285     0.00046648995297     0.00184405582780     0.00082197336566     0.30023400896052     0.27635827118116     0.42340771985832
                 286    -0.00026209934781     0.00308121371524    -0.00031918897531     0.29874338128131     0.27839537430551     0.42286124441317
                 287     0.00030167256498    -0.00200630425336     0.00025309543871     0.29438957845829     0.28304133221205     0.42256908932966
                 288     0.00021405749968    -0.00203885237417     0.00037825437875     0.29608138096544     0.28113951039441     0.42277910864015
                 289     0.00052817834071     0.00169395544780    -0.00121789762837     0.29662902052460     0.27944129359176     0.42392968588363
                 290    -0.00000432505091     0.00177756044900     0.00045661650182     0.29570485367786     0.27988343178586     0.42441171453628
                 291     0.00027436779012    -0.00103418303679    -0.00010817889638     0.29612757401961     0.27859406702046     0.42527835895993
                 292    -0.00022751299951    -0.00043488610915     0.00139345915884     0.29755081801844     0.27759019340772     0.42485898857384
                 293    -0.00025058678238     0.00231163005342    -0.00027883647229     0.29691771837019     0.28097132252575     0.42211095910405
                 294    -0.00008014812149    -0.00338328343203    -0.00049064149971     0.29571011444882     0.28282613368039     0.42146375187080
                 295     0.00022545275618    -0.00054561238872     0.00046272388495     0.29808514687427     0.27889877950602     0.42301607361970
                 296    -0.00016987341998     0.00096277534556     0.00047078902445     0.29708141133154     0.27880818244496     0.42411040622350
                 297     0.00043443528417     0.00086214866641     0.00017954566611     0.29863578735520     0.27812400671526     0.42324020592953
                 298    -0.00026578536621     0.00088902700601    -0.00056159407562     0.28796714436025     0.28643041676360     0.42560243887615
                 299     0.00017244172929     0.00116097564588    -0.00021964894599     0.33045665440291     0.24867937462307     0.42086397097403
                 300    -0.00096638528882    -0.00039950486818    -0.00030235326333     0.21992101519687     0.32598376519395     0.45409521960918
 l=         500
                   1     0.00075575944240     0.00086210513893     0.00081421682332     0.19441461882477     0.36011553952185     0.44546984165338
                   2    -0.00010232900080    -0.00196777402874    -0.00064227872649     0.32465178201577     0.27225835549365     0.40308986249058
                   3     0.00096352702722     0.00234812805537     0.00084919095468     0.28994101368760     0.29986824902808     0.41019073728432
                   4    -0.00026890781031    -0.00202874245625    -0.00128542100819     0.30005056787706     0.29066386853620     0.40928556358674
                   5     0.00062152350643    -0.00259693727956    -0.00091040777553     0.29567897191200     0.29313618798647     0.41118484010153
                   6    -0.00036868313428     0.00061321262395     0.00128584123624     0.29597173638418     0.29430101534355     0.40972724827227
                   7    -0.00062102251015    -0.00036631145723     0.00116991401015     0.29793038657773     0.29417823575742     0.40789137766485
                   8     0.00042157776188     0.00099724460951    -0.00133421497233     0.29826703330505     0.29374159399325     0.40799137270170
                   9    -0.00147159180886     0.00229341225043     0.00155639315327     0.29758354518188     0.29555792499894     0.40685852981918
                  10    -0.00024760030212     0.00007672120116    -0.00183086556267     0.29671255921461     0.29467939176984     0.40860804901555
                  11     0.00055544735638    -0.00143994868521     0.00170975710236     0.29815160207022     0.29236456375180     0.40948383417798
                  12    -0.00054265643187    -0.00091019722979    -0.00042491195574     0.29628758125561     0.29247887345715     0.41123354528724
                  13     0.00046756939361     0.00162941459214    -0.00062846766561     0.29602819045697     0.29331047145072     0.41066133809231
                  14    -0.00015542457603    -0.00143782345470     0.00032175596626     0.29717921082139     0.29233122641363     0.41048956276498
                  15     0.00003172703323     0.00146073629947     0.00052284632682     0.29831869186051     0.29166857464062     0.41001273349886
                  16     0.00053109457634     0.00323057892341    -0.00129530518599     0.29692303031637     0.29264784141837     0.41042912826527
                  17    -0.00078039047935    -0.00154305082243    -0.00255567076714     0.29684545270355     0.29227626192991     0.41087828536653
                  18    -0.00051222353176    -0.00107585748249     0.00201897899062     0.29858178257906     0.29238675916058     0.40903145826036
                  19    -0.00016461593316    -0.00248244698978    -0.00041925276337     0.29636795198425     0.29542232755742     0.40820972045832
                  20    -0.00016655019768    -0.00154892613883     0.00024092716981     0.29909975790766     0.29274389148591     0.40815635060643
                  21    -0.00056969520063     0.00348414556482    -0.00134690274105     0.29898453297751     0.29215406153115     0.40886140549134
                  22     0.00026357873912    -0.00289079323225     0.00004148200602     0.29515451238463     0.29530188124149     0.40954360637387
                  23    -0.00015461494043     0.00058945003611    -0.00057491014234     0.29794731542546     0.29168521124128     0.41036747333326
                  24    -0.00049132058754     0.00128955194329     0.00029984106302     0.29930125360448     0.29085806946672     0.40984067692880
                  25     0.00046201282065    -0.00105009918984    -0.00011912309465     0.29680347248316     0.29429760761958     0.40889891989726
                  26    -0.00042421979483     0.00018087557589    -0.00065201614976     0.29715805758562     0.29415803192354     0.40868391049084
                  27     0.00040708258779     0.00032176439699    -0.00041441984453     0.29747569255697     0.29354927324539     0.40897503419764
                  28     0.00013903295593     0.00215087192552    -0.00012108715149     0.29660457997611     0.29357756053104     0.40981785949285
                  29     0.00097004816092    -0.00113752662564     0.00054292509184     0.29807185262091     0.29112302529048     0.41080512208861
                  30     0.00019066306529     0.00102238072886     0.00039319592500     0.29740767064710     0.29173348539148     0.41085884396141
                  31     0.00045155059104    -0.00094597306093     0.00024125186968     0.29541810076896     0.29532518745222     0.40925671177882
                  32    -0.00019124510636    -0.00014669347271     0.00089873894355     0.29779473441923     0.29349638469363     0.40870888088714
                  33     0.00053338725398     0.00231857021240     0.00063420540555     0.29693199117304     0.29382091112751     0.40924709769945
                  34     0.00044697692053    -0.00045637681225    -0.00048073565937     0.29768230920347     0.29360825576861     0.40870943502792
                  35     0.00013988069550    -0.00117575814151    -0.00029844455666     0.29622597008079     0.29488943039352     0.40888459952569
                  36     0.00086436390975     0.00060306240330     0.00051174710065     0.29602305638258     0.29533843382418     0.40863850979324
                  37     0.00035462729096     0.00197291966057     0.00054372076952     0.30040054527365     0.29273810621062     0.40686134851573
                  38     0.00012455520294    -0.00217984603686     0.00009504971569     0.29952820060695     0.29212863544114     0.40834316395191
                  39     0.00044160865060    -0.00145263467293    -0.00006314212453     0.29779496284728     0.29396471126687     0.40824032588586
                  40    -0.00028820780355     0.00108212713305    -0.00154976861686     0.29730406269299     0.29391270523525     0.40878323207177
                  41     0.00103951268213     0.00110989790520     0.00077142514354     0.29533452461805     0.29536844135029     0.40929703403167
                  42    -0.00016841332788    -0.00042453941867     0.00126126970914     0.29665431795844     0.29371148762670     0.40963419441486
                  43     0.00097198911652     0.00120354789495     0.00156075972989     0.29633128519228     0.29435309702253     0.40931561778519
                  44     0.00098908381480    -0.00128481359005    -0.00043708237558     0.29668892387920     0.29446140481961     0.40884967130119
                  45     0.00086232660829    -0.00128908974513    -0.00149054934677     0.29775484048067     0.29350940068772     0.40873575883161
                  46     0.00030443872177     0.00072756891990    -0.00062598997489     0.29691306954547     0.29410285081437     0.40898407964016
                  47     0.00043572116297     0.00003482949522     0.00035279037157     0.29688855084683     0.29426393533380     0.40884751381937
                  48    -0.00005106633595     0.00120211046390     0.00118989276891     0.29655828279952     0.29414553160514     0.40929618559534
                  49     0.00023187575451    -0.00256423403801    -0.00001842855664     0.29725416455846     0.29331917340359     0.40942666203795
                  50     0.00018638579982    -0.00096078776049    -0.00093064172564     0.29712940869260     0.29405256000377     0.40881803130362
                  51    -0.00012547700560     0.00014888542125     0.00018578264707     0.29718419599387     0.29429493756698     0.40852086643915
                  52    -0.00073226016732     0.00361476720155    -0.00039366724524     0.29726302470854     0.29438404348826     0.40835293180321
                  53    -0.00011123373159    -0.00278450960553     0.00036551366374     0.29896389461223     0.29166278220030     0.40937332318747
                  54     0.00024217443944    -0.00350114383997     0.00037119768489     0.29750819026384     0.29149813550622     0.41099367422994
                  55    -0.00068102082940     0.00155141131008     0.00124220399937     0.29671498936523     0.29187197120492     0.41141303942985
                  56     0.00072385741212    -0.00028942908239    -0.00078859636087     0.29738139466468     0.29201100786006     0.41060759747527
                  57    -0.00109448588455    -0.00013051551825     0.00084552272109     0.29636607016427     0.29512863140147     0.40850529843427
                  58    -0.00026491767354    -0.00046094368667     0.00026701657325     0.29754870089303     0.29483663156994     0.40761466753703
                  59    -0.00057610156229     0.00201745589225     0.00070416329162     0.29834928444969     0.29302687641745     0.40862383913285
                  60    -0.00081916469638    -0.00043052332547    -0.00010909522660     0.29701003941896     0.29416180225779     0.40882815832325
                  61    -0.00087678894692     0.00077218392805     0.00102954503248     0.29591358900145     0.29498921108026     0.40909719991829
                  62    -0.00063179623374    -0.00122797360579    -0.00027482515744     0.29628625819190     0.29515761784158     0.40855612396652
                  63    -0.00009859869833     0.00130915712754     0.00091104426234     0.29555864960031     0.29459125686489     0.40985009353480
                  64     0.00049469372578    -0.00284675570797     0.00010754519136     0.29661295754750     0.29503620739488     0.40835083505762
                  65    -0.00026392225603    -0.00016920808174    -0.00028475593298     0.29626965212736     0.29511237201662     0.40861797585602
                  66     0.00024332076485     0.00171747766138    -0.00018450514209     0.29556191526174     0.29580931264001     0.40862877209825
                  67    -0.00065586256800     0.00054167040651    -0.00169966777000     0.29781326395477     0.29266342363057     0.40952331241466
                  68     0.00048714791348    -0.00005134955609    -0.00068503505214     0.29647123530732     0.29409910253602     0.40942966215666
                  69    -0.00052791475039     0.00095911727941     0.00080618529020     0.29623211141658     0.29497381164415     0.40879407693927
                  70     0.00027648528301     0.00062121959543     0.00012283013172     0.29785622349771     0.29356962824416     0.40857414825813
                  71     0.00032142358225    -0.00227694295132    -0.00144927814938     0.29645065325485     0.29365294740214     0.40989639934301
                  72    -0.00032447587355     0.00053225566504    -0.00050581920966     0.29498096009971     0.29482903218610     0.41019000771419
                  73     0.00022875120463     0.00059276686079    -0.00034051852261     0.29485274391341     0.29410376847369     0.41104348761290
                  74    -0.00052746316432    -0.00028527618044     0.00072283310735     0.29614007956425     0.29330362516387     0.41055629527188
                  75    -0.00024559746393     0.00375206927250    -0.00034410857210     0.29675549751989     0.29307747972562     0.41016702275449
                  76    -0.00070027584664     0.00031520097379    -0.00022763100935     0.29635219781238     0.29436579439740     0.40928200779022
                  77    -0.00015188621310    -0.00143134777571    -0.00010893591459     0.29569236257812     0.29394787063271     0.41035976678917
                  78    -0.00029576053273    -0.00169631614676    -0.00046296202047     0.29636086400152     0.29328651230474     0.41035262369374
                  79    -0.00031996768669    -0.00200019779511     0.00137548082367     0.29702378340876     0.29392978997158     0.40904642661966
                  80    -0.00060415021173     0.00124621771281     0.00094924153553     0.29735429622905     0.29438253304348     0.40826317072747
                  81     0.00055582105240     0.00445847310530    -0.00166890738383     0.29563427658627     0.29528841531342     0.40907730810031
                  82     0.00053344522672    -0.00140376294780     0.00141941507609     0.29634744638611     0.29596195200107     0.40769060161281
                  83     0.00063988312102     0.00066041782229    -0.00142823757824     0.29670682468321     0.29454778958238     0.40874538573442
                  84     0.00004221947979    -0.00293061367697     0.00078062833660     0.29676490615684     0.29455934988621     0.40867574395695
                  85     0.00029766021344     0.00151687083539    -0.00013009856162     0.29685204380522     0.29394866280001     0.40919929339477
                  86    -0.00018440848654     0.00150888279763     0.00112539344666     0.29683517392722     0.29320409623924     0.40996072983354
                  87     0.00015901188441     0.00234312487658     0.00137789247874     0.29827389463349     0.29192839775728     0.40979770760924
                  88     0.00011400905228    -0.00137997776473    -0.00128616777628     0.29745152450440     0.29309947671090     0.40944899878470
                  89    -0.00026113740637    -0.00063418399231     0.00074280536395     0.29643147874401     0.29312184156134     0.41044667969466
                  90     0.00036982770565    -0.00205125380774     0.00114174096248     0.29640630515864     0.29410757682973     0.40948611801163
                  91    -0.00023421521542     0.00231475517755    -0.00013459513021     0.29655492855014     0.29426911950245     0.40917595194741
                  92    -0.00035930571727     0.00152298876307     0.00142340107808     0.29672010046348     0.29423852879150     0.40904137074502
                  93     0.00058830468692     0.00026963696876    -0.00108651011174     0.29626522234273     0.29414108903803     0.40959368861924
                  94     0.00086245193288     0.00113433210256     0.00122205050386     0.29661672028789     0.29349817168565     0.40988510802646
                  95    -0.00045842825107     0.00029315833918    -0.00069050480229     0.29549374588396     0.29460498411067     0.40990127000537
                  96     0.00028339006190    -0.00347547251838    -0.00069589094098     0.29526857374240     0.29449918356195     0.41023224269565
                  97     0.00007679236437     0.00164672646024     0.00031636788627     0.29775658786996     0.29231575287110     0.40992765925894
                  98     0.00044833499360     0.00046673770548     0.00148458258880     0.29621060257325     0.29348715020448     0.41030224722227
                  99    -0.00065134584295     0.00090550427484     0.00004474916658     0.29789410530644     0.29156335600302     0.41054253869054
                 100     0.00071854238291    -0.00134695800035     0.00006063276774     0.29901357439160     0.29249087939389     0.40849554621450
                 101    -0.00021820787940     0.00165050484281    -0.00057211424266     0.29797253107626     0.29321215969094     0.40881530923280
                 102    -0.00018703693902     0.00310411021586    -0.00021269166599     0.29639742095482     0.29360424612799     0.40999833291719
                 103     0.00000147503369    -0.00142789521324     0.00058123762618     0.29759972893715     0.29191694978516     0.41048332127768
                 104     0.00085634893065     0.00082232805052    -0.00051297419533     0.29716509752380     0.29192032903032     0.41091457344588
                 105     0.00030941742935    -0.00042579092641    -0.00068627657386     0.29640522377841     0.29374822121330     0.40984655500829
                 106    -0.00043087399984    -0.00352570885664    -0.00064470227510     0.29749434113038     0.29343274167587     0.40907291719375
                 107    -0.00008076297897     0.00024319536475     0.00230161014431     0.29688002725960     0.29263657725388     0.41048339548652
                 108     0.00052633056109    -0.00087199841883     0.00057643135826     0.29749096659427     0.29248487208304     0.41002416132269
                 109     0.00000587063911     0.00176423570825    -0.00113294239892     0.29633066188725     0.29274746723769     0.41092187087506
                 110    -0.00030732422233     0.00145170261364     0.00090039461817     0.29583402508359     0.29311725238229     0.41104872253413
                 111     0.00059173873417     0.00048251983299    -0.00062088405780     0.29616162204391     0.29280564539435     0.41103273256173
                 112     0.00006679945614    -0.00077761284871    -0.00175965726824     0.29647589558565     0.29264824934506     0.41087585506929
                 113     0.00010014689992    -0.00037863577371     0.00048739886578     0.29650526878934     0.29481314359353     0.40868158761712
                 114    -0.00020675109540    -0.00182825122712    -0.00028084675211     0.29708391736055     0.29394814555130     0.40896793708815
                 115     0.00026040972723     0.00354917807270     0.00064413163182     0.29735555066392     0.29256432851157     0.41008012082451
                 116    -0.00090871913571    -0.00221972339626    -0.00006042085300     0.29556168129976     0.29349348975283     0.41094482894742
                 117    -0.00044179211329    -0.00316099649341     0.00024249241534     0.29715381592478     0.29141187036864     0.41143431370658
                 118    -0.00067916203240     0.00182744864984     0.00074848135296     0.29817563516524     0.29143663364823     0.41038773118654
                 119    -0.00012076467175     0.00109895976811    -0.00041913779746     0.29691454036531     0.29419602613011     0.40888943350458
                 120    -0.00111285010420    -0.00202602009602     0.00050100258376     0.29753712165583     0.29325839063282     0.40920448771135
                 121    -0.00018816422589     0.00107107167829     0.00130354151711     0.29705804868685     0.29417230154487     0.40876964976828
                 122     0.00029139370050     0.00167575796697    -0.00075276596429     0.29644751501149     0.29354707812351     0.41000540686499
                 123    -0.00036894966197    -0.00255098996895     0.00002936929469     0.29624954810924     0.29372014830512     0.41003030358564
                 124    -0.00026444264440     0.00267292974966     0.00050336460270     0.29626753921115     0.29419378394098     0.40953867684787
                 125    -0.00068630172659    -0.00198290508738    -0.00093251824197     0.29635229677298     0.29448860411076     0.40915909911626
                 126     0.00042338856904    -0.00014456582353     0.00088898539829     0.29605610030514     0.29463206422447     0.40931183547039
                 127    -0.00033198909179    -0.00155914569661     0.00009760327002     0.29747857851283     0.29285419408793     0.40966722739924
                 128    -0.00029954875071     0.00128743668022    -0.00032452274980     0.29818232766168     0.29153410325684     0.41028356908148
                 129     0.00028213823868    -0.00063905372649     0.00004102217991     0.29919119737069     0.28925051862640     0.41155828400292
                 130     0.00020768099353     0.00011312822310     0.00073210461481     0.29948902714678     0.28957834842025     0.41093262443297
                 131    -0.00089600106184     0.00032430667139     0.00012590641786     0.29674051762647     0.29383422503186     0.40942525734167
                 132     0.00020838544371    -0.00042664141945     0.00119774356597     0.29540511005942     0.29531190020284     0.40928298973774
                 133    -0.00000637187759     0.00047858887589    -0.00096850765481     0.29683480190708     0.29428445787352     0.40888074021940
                 134    -0.00037327390359     0.00126862963514     0.00141409477865     0.29723608321855     0.29320324188162     0.40956067489984
                 135    -0.00049290346069    -0.00169239259230    -0.00169481299539     0.29867209814212     0.29084521967111     0.41048268218677
                 136     0.00069509989677     0.00049120362318    -0.00023426825977     0.29678931317546     0.29229149579710     0.41091919102745
                 137     0.00064865951484    -0.00227607925162     0.00077240259856     0.29594115009083     0.29320871057022     0.41085013933895
                 138    -0.00016817110410     0.00209864409674     0.00055317784274     0.29718932101581     0.29152458043959     0.41128609854460
                 139    -0.00005997633442     0.00080194519962    -0.00202054433575     0.29530513167286     0.29337663984429     0.41131822848285
                 140     0.00071766459597     0.00003530745935    -0.00085523277100     0.29554013247894     0.29386794705915     0.41059192046191
                 141     0.00032137753771     0.00195024692273     0.00080162186985     0.29797618483065     0.29159081448402     0.41043300068533
                 142    -0.00057174826351    -0.00281407721257    -0.00081459260484     0.29677184135184     0.29288133551444     0.41034682313372
                 143     0.00102149298842    -0.00146005240582     0.00067059309767     0.29442150601604     0.29540975688021     0.41016873710374
                 144     0.00039728024806     0.00002918887561    -0.00193048510703     0.29739266206478     0.29287264876273     0.40973468917249
                 145     0.00078825597269     0.00260903288368     0.00072484297833     0.29668416982262     0.29266678063809     0.41064904953929
                 146     0.00128402086284     0.00109521504236     0.00027271976577     0.29644713725133     0.29397394369052     0.40957891905816
                 147     0.00062113244947    -0.00104159617950    -0.00038954126552     0.29711046740036     0.29340027597675     0.40948925662289
                 148    -0.00023132879135    -0.00113387292039    -0.00012062391886     0.29619234442615     0.29388599317927     0.40992166239459
                 149     0.00011096803225     0.00130787793069     0.00065773221507     0.29873106606650     0.29053298539336     0.41073594854013
                 150    -0.00002216935966     0.00062645875270    -0.00234188736435     0.29787572688329     0.29109958549474     0.41102468762197
                 151     0.00015392902914    -0.00102795360806    -0.00037531342444     0.29561540995850     0.29405017904055     0.41033441100095
                 152    -0.00018070414597     0.00121064475724     0.00179996410128     0.29706127320979     0.29270824082561     0.41023048596460
                 153    -0.00013762006354    -0.00091633769010    -0.00122932787096     0.29805920919095     0.29051417687788     0.41142661393117
                 154     0.00000461701924     0.00113965252503    -0.00035093534141     0.29672455567924     0.29218691895486     0.41108852536590
                 155     0.00046251713127    -0.00324511296278     0.00003853797292     0.29772822863338     0.29088236731906     0.41138940404755
                 156    -0.00017478583150    -0.00047535094756     0.00091605310695     0.29717228268728     0.29203721598819     0.41079050132453
                 157    -0.00068655158007     0.00052099489671    -0.00278269352461     0.29623550548971     0.29262450282212     0.41113999168817
                 158    -0.00035580638789     0.00079669744850     0.00130103283147     0.29618113943035     0.29241328144676     0.41140557912289
                 159     0.00002803843945     0.00021150514604    -0.00090167559503     0.29620696306997     0.29295548733476     0.41083754959527
                 160    -0.00014456435402     0.00048742407519     0.00112557040003     0.29552306135674     0.29295079495531     0.41152614368795
                 161     0.00037228819961     0.00025021802244     0.00056895217869     0.29654732960812     0.29056047335090     0.41289219704099
                 162     0.00034830806467    -0.00035485613194    -0.00060858569164     0.29641117940954     0.29163653229044     0.41195228830002
                 163     0.00024657446741     0.00173640705642     0.00069819505984     0.29733672854993     0.29151055204542     0.41115271940465
                 164     0.00052459301560     0.00163281105374     0.00008364278569     0.29761286859325     0.29112624478149     0.41126088662526
                 165     0.00014647649698    -0.00287281974674     0.00053041366166     0.29618233214240     0.29170233217864     0.41211533567896
                 166     0.00033465032186    -0.00162390293453     0.00014168848754     0.29719203038740     0.29082227369831     0.41198569591429
                 167     0.00029370100644    -0.00111248619925    -0.00048604850582     0.29644887943414     0.29141463682616     0.41213648373970
                 168    -0.00053889485737     0.00099483154836    -0.00079863732002     0.29587292951421     0.29151290020032     0.41261417028547
                 169    -0.00032152971565    -0.00143422379518     0.00001453887701     0.29733392880087     0.29145046433176     0.41121560686737
                 170     0.00005349892507    -0.00214496917858     0.00033484941713     0.29619986587451     0.29369079315563     0.41010934096986
                 171    -0.00027244462402     0.00196274664465     0.00011181682410     0.29568580299196     0.29332829851120     0.41098589849683
                 172     0.00058773186827    -0.00016555891005    -0.00163420184352     0.29594371901138     0.29365549080574     0.41040079018288
                 173     0.00020810573807     0.00069251294753     0.00076699955947     0.29798923946409     0.28957777400467     0.41243298653124
                 174     0.00006797515669    -0.00183247160290     0.00099253998075     0.29775867235123     0.28868976800554     0.41355155964323
                 175    -0.00020602705268    -0.00031806925628    -0.00014085381729     0.29575896651402     0.29249964493882     0.41174138854716
                 176     0.00043511957733     0.00390616426560     0.00157927722729     0.29759898487961     0.29151419492127     0.41088682019912
                 177     0.00036989245968    -0.00228154976131    -0.00219783263977     0.29755610381307     0.29078271106292     0.41166118512401
                 178    -0.00010740241952     0.00074874472488     0.00193729426177     0.29530640211625     0.29160018612528     0.41309341175847
                 179    -0.00036448269779    -0.00117806771383     0.00014676364346     0.29502479803026     0.29159339785896     0.41338180411078
                 180    -0.00004677503402     0.00018404256160    -0.00034527809403     0.29443943976075     0.29219366707252     0.41336689316673
                 181     0.00052131207261    -0.00170512972578     0.00046369532625     0.29596292682668     0.29128258263659     0.41275449053673
                 182     0.00028548738253     0.00362970188290    -0.00108315908550     0.29648516671407     0.29165347122183     0.41186136206410
                 183    -0.00019481028304    -0.00139542215331    -0.00003843443511     0.29557835494926     0.29009375059939     0.41432789445135
                 184    -0.00069005145232    -0.00002054466042     0.00030989347389     0.29465407913273     0.29148724917730     0.41385867168996
                 185     0.00058268235513    -0.00401028822571    -0.00059039235765     0.29633005683280     0.28915033006758     0.41451961309962
                 186     0.00002095880139     0.00033893697468    -0.00076081651814     0.29615432253628     0.29013587507196     0.41370980239176
                 187     0.00058097919746     0.00043820765043     0.00060625541721     0.29541265314301     0.29221131589660     0.41237603096039
                 188    -0.00050156249924     0.00004377414007    -0.00144696833910     0.29583356425211     0.29123131428751     0.41293512146038
                 189    -0.00014971042801     0.00144132238000    -0.00086223022547     0.29556124011870     0.29193460086577     0.41250415901553
                 190    -0.00025061574541    -0.00003714836478     0.00018900001191     0.29584254009642     0.29153154687795     0.41262591302563
                 191     0.00011309753321    -0.00114811069133    -0.00033595816437     0.29856728056586     0.28854952554339     0.41288319389075
                 192    -0.00024000152677     0.00053089112051     0.00105038292676     0.29775095549102     0.29023394646531     0.41201509804367
                 193     0.00005173949433    -0.00066975947749    -0.00055809214395     0.29540799716421     0.29134279425777     0.41324920857802
                 194    -0.00035007509060    -0.00129674265408     0.00073808458657     0.29631553990568     0.29178914503764     0.41189531505669
                 195    -0.00023839886954     0.00037076189549     0.00090142548818     0.29617810528410     0.29223725564473     0.41158463907117
                 196    -0.00007805848181     0.00036575776268     0.00034768999680     0.29630328216412     0.29165638839810     0.41204032943779
                 197     0.00034264780569     0.00021248674823    -0.00124496960273     0.29719344432649     0.28951223090756     0.41329432476595
                 198    -0.00046255379048     0.00047725129920     0.00116085353803     0.29644234265509     0.28988790837886     0.41366974896605
                 199     0.00027575128049    -0.00157253196518    -0.00037731126343     0.29758833988827     0.28904680383506     0.41336485627667
                 200     0.00097355178330    -0.00174519459382    -0.00009569307042     0.29722246876604     0.28878411233016     0.41399341890380
                 201    -0.00077438511970     0.00016672856894     0.00028069578269     0.29417161181629     0.29108216325597     0.41474622492773
                 202    -0.00056424700315     0.00266280779114    -0.00127303087989     0.29231013543026     0.29221633787233     0.41547352669740
                 203     0.00052125073907    -0.00267850631172    -0.00110632231192     0.29905275634250     0.28573328684215     0.41521395681535
                 204    -0.00023767210339    -0.00173349279645    -0.00160720804886     0.29786179647079     0.28617183287719     0.41596637065202
                 205    -0.00027225496319     0.00336625486185    -0.00003343536021     0.29492003874621     0.28986802883991     0.41521193241387
                 206    -0.00097477426773    -0.00072762143333    -0.00032815301613     0.29636642793875     0.28954872646176     0.41408484559950
                 207     0.00032640819769    -0.00142652457479    -0.00211834952109     0.29486243374916     0.29096594612306     0.41417162012778
                 208    -0.00092131546835    -0.00056794588401     0.00137814812580     0.29626827536239     0.28940276393023     0.41432896070738
                 209     0.00006690021200     0.00043061530976     0.00007568685934     0.29548903611075     0.28995379577030     0.41455716811895
                 210    -0.00032480684242     0.00116994249268    -0.00121466400218     0.29587824567627     0.28933787794253     0.41478387638120
                 211    -0.00046116965362     0.00264125096279     0.00112252566612     0.29694142479807     0.28895053464549     0.41410804055644
                 212    -0.00012095376867     0.00060878344316     0.00029114231421     0.29631584673390     0.28956114235177     0.41412301091433
                 213    -0.00027590963247    -0.00246151024750     0.00005132440165     0.29617688993512     0.29006328445041     0.41375982561447
                 214     0.00058949494339    -0.00171360968677     0.00153553411912     0.29669650641893     0.28988179615019     0.41342169743088
                 215     0.00064497479297     0.00114362401147     0.00022446204669     0.29485260367135     0.29083018671675     0.41431720961190
                 216     0.00137638780809     0.00134535866025    -0.00015398881996     0.29625209703487     0.28954957296297     0.41419833000216
                 217    -0.00059174330272    -0.00175119935218     0.00079479379883     0.29529400756969     0.29169721055260     0.41300878187771
                 218     0.00034215087174     0.00532129229961     0.00065414437288     0.29572032435279     0.29177828232123     0.41250139332598
                 219    -0.00052002974468    -0.00241217403176    -0.00117006617622     0.29528915067933     0.29215336611931     0.41255748320136
                 220     0.00039826147938    -0.00171915933488     0.00016958106938     0.29384153075601     0.29300578572792     0.41315268351607
                 221     0.00004343086284     0.00129102517274    -0.00021951917961     0.29506040798158     0.29066308320949     0.41427650880893
                 222    -0.00070505502134     0.00056365319326    -0.00014049869587     0.29473776705480     0.29055661141238     0.41470562153281
                 223     0.00011576681363     0.00123334980610    -0.00071947002374     0.29768898318036     0.28816859547046     0.41414242134918
                 224    -0.00071376265919    -0.00156280960625     0.00011371021587     0.29647616860268     0.28897369363604     0.41455013776128
                 225     0.00019174472071    -0.00132228722450     0.00003644128619     0.29447461183303     0.29171133446894     0.41381405369803
                 226     0.00072314672588     0.00014298417770    -0.00029823864622     0.29553778867167     0.29043377131900     0.41402844000933
                 227    -0.00052477912311    -0.00105691705151     0.00028846428889     0.29592667375804     0.28997270766980     0.41410061857215
                 228     0.00009835752282    -0.00165686698365    -0.00028952868148     0.29512488950234     0.29002643523450     0.41484867526316
                 229    -0.00007032395100     0.00238425088382     0.00189416240454     0.29662523703400     0.28789981378842     0.41547494917758
                 230    -0.00005572137777     0.00223376140791     0.00030781235170     0.29628532618795     0.28991369459817     0.41380097921388
                 231     0.00045414049497    -0.00175057880328    -0.00053996869559     0.29520673644187     0.29141865998452     0.41337460357361
                 232     0.00015993739359    -0.00028114690770     0.00096918080712     0.29686936978668     0.29082198810788     0.41230864210544
                 233     0.00119466675914     0.00092585270421    -0.00005814272762     0.29609921703839     0.29079198195691     0.41310880100470
                 234    -0.00027447584775    -0.00047165515402     0.00047892467322     0.29499880828950     0.29153105790921     0.41347013380128
                 235     0.00047230336237     0.00182414086922     0.00037366481310     0.29825933979336     0.28702130583921     0.41471935436743
                 236     0.00023944001527    -0.00159803564952     0.00087291804971     0.29914364787497     0.28633007981154     0.41452627231349
                 237     0.00001763091048    -0.00293458406326     0.00197061146193     0.29452140084883     0.29264228282939     0.41283631632178
                 238     0.00014336338563     0.00182962777250    -0.00124247382154     0.29738518496300     0.29048007355241     0.41213474148459
                 239     0.00018584621420     0.00079975402134    -0.00012404271671     0.29673910448175     0.29006274095538     0.41319815456286
                 240     0.00026281664905    -0.00078689648523     0.00025857637432     0.29536373929525     0.29195403540953     0.41268222529522
                 241     0.00125076113808    -0.00130013078615     0.00170703065948     0.29712969946124     0.29001011662215     0.41286018391661
                 242    -0.00109810550723     0.00001607573300    -0.00081941682849     0.29680158225347     0.29056359667051     0.41263482107602
                 243    -0.00021554739786     0.00009700021227    -0.00054555226798     0.29571194446602     0.29309132901669     0.41119672651729
                 244    -0.00010741991535    -0.00055124130562    -0.00169635898122     0.29596045324167     0.29209818544914     0.41194136130919
                 245     0.00057578791381     0.00282000254209     0.00107139421619     0.29600912375830     0.29098251579104     0.41300836045066
                 246     0.00039179523253    -0.00141741521545     0.00081358340888     0.29435270002909     0.29294303450957     0.41270426546135
                 247    -0.00032840119010    -0.00208509791065     0.00082754251636     0.29702131289226     0.29036764210622     0.41261104500152
                 248    -0.00000820944690     0.00143302450891     0.00016025919193     0.29506555024034     0.29026334010961     0.41467110965006
                 249     0.00030008873703     0.00303582949577    -0.00091133811780     0.29639243492328     0.28856344923211     0.41504411584462
                 250    -0.00053415093549     0.00182959586173     0.00004129007466     0.29878241791869     0.28611161484876     0.41510596723255
                 251     0.00016492231752    -0.00321034681875    -0.00125304600580     0.29737483514509     0.28977227564421     0.41285288921070
                 252    -0.00030452178032     0.00057520363533    -0.00020023508710     0.29717317258077     0.29020850164804     0.41261832577118
                 253    -0.00035131106997     0.00047780521446     0.00134748640635     0.29679037410878     0.28944918575089     0.41376044014033
                 254    -0.00072993420671    -0.00032819962291    -0.00096766693816     0.29610784894443     0.28950098937966     0.41439116167590
                 255     0.00009715002405    -0.00032154573648    -0.00015111579971     0.29607345349640     0.28921649415813     0.41471005234548
                 256    -0.00003987914807     0.00015036653127     0.00113958495222     0.29845331035679     0.28852728926870     0.41301940037451
                 257    -0.00043038549635     0.00015998100639     0.00186485741485     0.29578179587726     0.29253245078480     0.41168575333794
                 258    -0.00017560801270    -0.00055035163731    -0.00054897682525     0.29593261283840     0.29298109729579     0.41108628986581
                 259    -0.00003961074409    -0.00060183454221    -0.00101669404458     0.29571495927199     0.29211012042133     0.41217492030668
                 260     0.00000994008265     0.00069091657761     0.00037077200027     0.29396188190158     0.29251973188533     0.41351838621309
                 261    -0.00076397954008     0.00008322680026    -0.00041373633937     0.29708152400339     0.29042445812474     0.41249401787187
                 262    -0.00076733281937     0.00095939388668     0.00034450282603     0.29778578243775     0.28953534529879     0.41267887226346
                 263    -0.00002731928914    -0.00311483340640     0.00011567708369     0.29616607891335     0.29106375534745     0.41277016573920
                 264     0.00056676158521     0.00059072665125     0.00018825648113     0.29449659123925     0.29309702589119     0.41240638286956
                 265     0.00069746584685     0.00144399279657    -0.00056742181688     0.29676266929872     0.28966778603561     0.41356954466567
                 266    -0.00023437845608     0.00038160958238     0.00027731091878     0.29592665581287     0.28960741932959     0.41446592485754
                 267    -0.00075402173426    -0.00142915907985    -0.00021671331760     0.29467108160863     0.29022990495806     0.41509901343331
                 268    -0.00045051072757     0.00005782236089    -0.00152545755845     0.29520666056315     0.28929217446240     0.41550116497445
                 269     0.00065348040988     0.00141440484426     0.00079162043632     0.29555307350067     0.29019131734848     0.41425560915085
                 270    -0.00076645960204    -0.00259710111185     0.00037846261557     0.29584893555343     0.29077625151009     0.41337481293649
                 271    -0.00024049087055    -0.00006630292454     0.00092958435139     0.29467035551914     0.29075469659171     0.41457494788915
                 272    -0.00022992741066    -0.00066928396691    -0.00124269591142     0.29319689216285     0.29131875198668     0.41548435585046
                 273     0.00036448778363     0.00061126126733     0.00015002935401     0.29735116278616     0.28625471490135     0.41639412231249
                 274     0.00018095647631    -0.00040113348116     0.00123674160734     0.29674268504048     0.28668859800814     0.41656871695138
                 275     0.00012967687180     0.00143353215501    -0.00153046692083     0.29686052792473     0.28860248759485     0.41453698448042
                 276    -0.00021064523249    -0.00047606509238    -0.00017725271757     0.29705062479905     0.28901154934416     0.41393782585679
                 277     0.00010423867281     0.00169463472535    -0.00147593010834     0.29617428135089     0.28915897257001     0.41466674607910
                 278    -0.00003640137947     0.00060707908350     0.00046195185913     0.29627743743710     0.28836440912659     0.41535815343631
                 279    -0.00023933307769    -0.00402840035419     0.00068396645913     0.29706576125767     0.28697674390840     0.41595749483393
                 280    -0.00074912454650     0.00229797620444     0.00003217509927     0.29691504888558     0.28753992056424     0.41554503055019
                 281     0.00018732896550    -0.00150903829790     0.00180885970652     0.29405704641562     0.29222412873819     0.41371882484619
                 282    -0.00052460614577    -0.00131382564578    -0.00146783119635     0.29707793072677     0.29043235086500     0.41248971840823
                 283    -0.00027298233257    -0.00083054575033     0.00195574440602     0.29615445747835     0.29108061347763     0.41276492904403
                 284    -0.00059596791012    -0.00226685219334     0.00000392698159     0.29660910762702     0.29026601288222     0.41312487949076
                 285     0.00063675246790     0.00421292745488     0.00057665129221     0.29748179953939     0.28921887438545     0.41329932607515
                 286    -0.00018663923509    -0.00026102588936     0.00004535134534     0.29429579675358     0.29194000679762     0.41376419644879
                 287    -0.00042385939126    -0.00000322008047     0.00074548714302     0.29380430283022     0.29269699730469     0.41349869986508
                 288    -0.00044634658646    -0.00095410056833    -0.00030160020508     0.29568406534176     0.29065972324418     0.41365621141407
                 289    -0.00051596172319     0.00117931639343    -0.00164249245758     0.29636004300366     0.28980821527433     0.41383174172201
                 290    -0.00037450354019    -0.00115172562151     0.00084366558299     0.29647733602233     0.28891467036912     0.41460799360855
                 291    -0.00017693879742     0.00062871751604    -0.00030034243073     0.29474979796422     0.29076303834285     0.41448716369293
                 292     0.00024092640773    -0.00094545315231     0.00038407127077     0.29628719841109     0.28999318287992     0.41371961870899
                 293    -0.00004327592954     0.00120714163206    -0.00074005127368     0.29641377588861     0.29100667753442     0.41257954657697
                 294     0.00014823492619    -0.00663300420310     0.00094712529726     0.29525003562088     0.29251362461469     0.41223633976443
                 295     0.00118634638455     0.00270677649765    -0.00016990038529     0.29777784079650     0.28982197679841     0.41240018240509
                 296    -0.00071084338233     0.00225784021160    -0.00075549550967     0.29535648946801     0.29023036770343     0.41441314282855
                 297    -0.00027183556313    -0.00238654353871     0.00011930854516     0.29838237300444     0.28831814084053     0.41329948615503
                 298     0.00033291195055     0.00368028258461    -0.00049347559131     0.28763909367570     0.29682209369107     0.41553881263323
                 299     0.00008754449866     0.00016052756969    -0.00048199891475     0.32738857369177     0.26231414956953     0.41029727673870
                 300    -0.00035224308699    -0.00076699925562    -0.00088047248210     0.20327418028928     0.34710426326489     0.44962155644583
