                   x                  sxy                  sxz                  syz                  sxx                  syy                  szz
 l=          10
                   1     0.00037463577078    -0.00000693769946    -0.00032607187457     0.47566948799778     0.03192035521021     0.49241015679201
                   2    -0.00306112138790    -0.00079817346603    -0.00052748473071     0.47965019433648     0.03179516188848     0.48855464377504
                   3    -0.00017343045439     0.00018731066694     0.00024280263614     0.46722164412071     0.04357960457856     0.48919875130073
                   4    -0.00255186538951     0.00038140268000     0.00095007512239     0.46891128334995     0.04515235394602     0.48593636270403
                   5     0.00027041971176     0.00085977928274    -0.00061018082122     0.45904955033660     0.05368766059700     0.48726278906640
                   6    -0.00321021171558    -0.00071439299974     0.00006242389640     0.45936052567705     0.05519735536274     0.48544211896021
                   7    -0.00001392068694     0.00029843088189    -0.00050669188734     0.46466374178053     0.04702482924222     0.48831142897725
                   8    -0.00233991232285     0.00024986982127     0.00020814976544     0.46528308750787     0.05036364683255     0.48435326565958
                   9     0.00049278661015     0.00075648177336     0.00018043844306     0.46134085148376     0.05187409045064     0.48678505806560
                  10    -0.00254512294980     0.00042297597755     0.00031200887625     0.45977673634047     0.05479168542648     0.48543157823305
                  11     0.00031902976506    -0.00006242629668    -0.00024963163043     0.47212284749059     0.03786301541905     0.49001413709035
                  12    -0.00284995852851    -0.00010403422208     0.00038149697101     0.47028203597482     0.04226345788240     0.48745450614278
                  13    -0.00015959838039     0.00086055496166    -0.00012495563528     0.47750132427004     0.03115259033785     0.49134608539210
                  14    -0.00241543467084    -0.00016654522884    -0.00000691217126     0.47720269731986     0.03334626533739     0.48945103734274
                  15     0.00020809729927    -0.00001728000203    -0.00011443378335     0.47468134983744     0.03399060809885     0.49132804206371
                  16    -0.00294435352858    -0.00005207724389     0.00011792885938     0.47433773107882     0.03685324771889     0.48880902120229
                  17     0.00061026544842    -0.00027042789137    -0.00033981929197     0.48242028133617     0.02459774246692     0.49298197619691
                  18    -0.00281008321205     0.00004161032482     0.00080459703052     0.48328350090738     0.02640749161311     0.49030900747952
                  19    -0.00017349300787     0.00065896599429    -0.00031213296214     0.46341118675241     0.04729144850021     0.48929736474737
                  20    -0.00258041252301    -0.00004167724968     0.00058999004995     0.46491301267050     0.04924485729065     0.48584213003885
                  21     0.00052016819295    -0.00061726519085     0.00031209591320     0.46269333405909     0.04900705093966     0.48829961500125
                  22    -0.00209471653436    -0.00031908605151     0.00024972734289     0.46387348534964     0.05040216634472     0.48572434830564
                  23     0.00029120876612     0.00049226160591    -0.00024963161663     0.45877418982697     0.05359494821483     0.48763086195820
                  24    -0.00178968823815    -0.00057570442686     0.00034679788022     0.45921478514175     0.05737695010876     0.48340826474949
                  25     0.00059687231560    -0.00144362557069    -0.00006244699513     0.46404165049031     0.04900633721461     0.48695201229508
                  26    -0.00240775480220     0.00097181444115    -0.00065251169378     0.46319509862678     0.05141614889403     0.48538875247920
                  27    -0.00007626466968     0.00024268575463     0.00017334098828     0.46899948601140     0.04208749472966     0.48891301925893
                  28    -0.00350247678476     0.00002076595404    -0.00029133910388     0.46786106437446     0.04511531334585     0.48702362227969
                  29    -0.00022201071584     0.00057577323390    -0.00095038542873     0.47207840099002     0.03789708067230     0.49002451833769
                  30    -0.00251104923291    -0.00052020283393    -0.00065883896309     0.47189052742254     0.04014985888265     0.48795961369481
                  31     0.00038861420221     0.00058984840769    -0.00024286906888     0.46067500363214     0.05088588819904     0.48843910816881
                  32    -0.00153336346407    -0.00064523686016    -0.00022204296663     0.46263179451353     0.05258334775308     0.48478485773339
                  33    -0.00000000048262    -0.00076357556223     0.00111760242960     0.46527063959380     0.04661355746687     0.48811580293933
                  34    -0.00215695374440    -0.00010397796604    -0.00066543918812     0.46528648486116     0.04940286129175     0.48531065384709
                  35    -0.00027053755356    -0.00083241806314    -0.00004161897810     0.45955790007480     0.05274121173414     0.48770088819106
                  36    -0.00206736606713     0.00025660057815     0.00016643502529     0.45880626136785     0.05578567281159     0.48540806582056
                  37     0.00054829640409    -0.00037481106677    -0.00054132835732     0.46370332441345     0.04853213169170     0.48776454389485
                  38    -0.00327443779538    -0.00113760807048    -0.00064512764255     0.46404596897468     0.05102130721136     0.48493272381396
                  39     0.00012492818643    -0.00021505764327    -0.00051361753199     0.45987045618488     0.05380219084466     0.48632735297046
                  40    -0.00237327053074     0.00052004318854     0.00004161031734     0.46006377774477     0.05587119786934     0.48406502438589
                  41     0.00031205359036    -0.00020802755230     0.00019418004699     0.46606182029001     0.04552598590378     0.48841219380621
                  42    -0.00334382155779     0.00034677382279    -0.00032597419688     0.46532886303676     0.04959744834089     0.48507368862235
                  43     0.00077789691482     0.00072921977709    -0.00034031974019     0.46383531887686     0.04855526639835     0.48760941472480
                  44    -0.00213029053331     0.00002771905776    -0.00012481268848     0.46443012032795     0.05048591085909     0.48508396881296
                  45     0.00077662930330     0.00024268862325     0.00036750420337     0.45618297908379     0.05706128275177     0.48675573816444
                  46    -0.00246854382571    -0.00002778735688    -0.00055502029053     0.45715277233686     0.05867775181850     0.48416947584464
                  47     0.00060348216208     0.00069365781795    -0.00024971723787     0.45439895216732     0.05991119793064     0.48568984990204
                  48    -0.00238558520932    -0.00137329157724     0.00004161512957     0.45498680600921     0.06117323362292     0.48383996036787
                  49     0.00073489448982     0.00067944291659     0.00020800976443     0.45440717884705     0.05980590225784     0.48578691889510
                  50    -0.00222683068215     0.00013183889618     0.00067342357696     0.45565921264893     0.06124368154554     0.48309710580553
                  51    -0.00002080684316     0.00119288877746     0.00006935678523     0.43988209096383     0.07559126505481     0.48452664398136
                  52    -0.00134458431010     0.00062453833835     0.00034000311538     0.44126016805140     0.07823720182937     0.48050263011923
                  53     0.00004855619628    -0.00092952901432     0.00034683684795     0.45377249928106     0.06125974944785     0.48496775127109
                  54    -0.00235234131945     0.00176189800893     0.00120697780397     0.45342785536569     0.06322771240112     0.48334443223318
                  55     0.00021503595903     0.00003469042042     0.00008323314564     0.45610635306188     0.05749596170098     0.48639768523715
                  56    -0.00264854169072     0.00002773684603    -0.00102611909807     0.45655650385321     0.05983366246654     0.48360983368025
                  57    -0.00006938758469     0.00088829175284     0.00046495200313     0.43968910469203     0.07824247477313     0.48206842053484
                  58    -0.00281876931426     0.00031910093200    -0.00002774983493     0.44120994711126     0.07957747639591     0.47921257649283
                  59     0.00002774839142    -0.00167194947414    -0.00069375406354     0.44048980158180     0.07731193143291     0.48219826698530
                  60    -0.00284286215948    -0.00031902062742    -0.00081843537095     0.43935355529459     0.08071777230498     0.47992867240043
                  61    -0.00016647495125     0.00061044536609    -0.00004855764013     0.45293315828851     0.06134297172151     0.48572386998998
                  62    -0.00313317643269    -0.00057542839844     0.00014559452739     0.44911952285404     0.06760212402358     0.48327835312237
                  63     0.00025689526521     0.00089563854869    -0.00056931137607     0.46075905445420     0.05227265443902     0.48696829110678
                  64    -0.00190799293316    -0.00032599921640     0.00035371633375     0.45986361493348     0.05556881643717     0.48456756862935
                  65    -0.00034018039031    -0.00070102755928     0.00029854120112     0.46798729969301     0.04340563508447     0.48860706522252
                  66    -0.00212354441340     0.00016642400508     0.00091506165091     0.46520012946007     0.04844484040688     0.48635503013305
                  67     0.00067278939175     0.00028436868810    -0.00045084219510     0.47882458087826     0.02922804601190     0.49194737310984
                  68    -0.00237863019801    -0.00075579361243     0.00006933851061     0.47675773124393     0.03290144641480     0.49034082234127
                  69    -0.00019437695245     0.00022214508851    -0.00036792780285     0.48731690385283     0.01783408538702     0.49484901076015
                  70    -0.00351049809527     0.00037459005160     0.00018729767249     0.48711818400028     0.02137301057402     0.49150880542570
                  71     0.00065229010282    -0.00018733570636    -0.00025675409586     0.48790479128852     0.01668902297290     0.49540618573858
                  72    -0.00381421209380     0.00031192669947    -0.00034657239897     0.48780065155611     0.02051902480514     0.49168032363875
                  73     0.00016993730522     0.00035370575499    -0.00012137293147     0.48689517613594     0.01837935284988     0.49472547101417
                  74    -0.00309065831653     0.00031904660143     0.00002427208493     0.48727660771032     0.02092561124072     0.49179778104896
                  75     0.00111007164768    -0.00018032455981    -0.00021161885016     0.48403228677127     0.02206616514006     0.49390154808867
                  76    -0.00312869060979    -0.00030889016219    -0.00005207200241     0.48427468934254     0.02368507303511     0.49204023762236
                  77     0.00022549569377    -0.00037471928440    -0.00074934833150     0.48484609991322     0.02064580677731     0.49450809330947
                  78    -0.00287167068118    -0.00064133411714     0.00001040462232     0.48520108514192     0.02357768824934     0.49122122660874
                  79     0.00056167078561    -0.00100894097068    -0.00007280904236     0.47022119879247     0.03976401073871     0.49001479046882
                  80    -0.00235405662258     0.00043012821920    -0.00049255933631     0.47221548389002     0.04016318847417     0.48762132763581
                  81     0.00004512803895     0.00025340249967    -0.00009718173204     0.46959954071058     0.04151605209325     0.48888440719617
                  82    -0.00191946615443    -0.00077344788300    -0.00007976910638     0.46911737371421     0.04412861482383     0.48675401146196
                  83     0.00011096470136    -0.00002075682246     0.00033285130065     0.47984147611182     0.02847293702456     0.49168558686361
                  84    -0.00318774785891     0.00100619751930    -0.00067659516776     0.47854709503936     0.03147585246465     0.48997705249599
                  85     0.00003467646745     0.00000345202019     0.00082856635980     0.48612225375542     0.02018739737997     0.49369034886461
                  86    -0.00274015743270     0.00043714583891     0.00085350890821     0.48399828772388     0.02371028992210     0.49229142235402
                  87     0.00013868182938     0.00001388693957     0.00011094738677     0.49858542706931     0.00213572709816     0.49927884583253
                  88    -0.00512241644054    -0.00009718172957     0.00001387828608     0.49838963796011     0.00730195684636     0.49430840519353
                  89     0.00023582596301     0.00014565992934    -0.00020114612715     0.49913299640556     0.00121380580200     0.49965319779244
                  90    -0.00547397488006    -0.00010408089576     0.00005550544674     0.49922290063924     0.00658411269825     0.49419298666251
                  91     0.00046471903647     0.00006936352026    -0.00022888826329     0.49649727019510     0.00517432944933     0.49832840035557
                  92    -0.00433462399972    -0.00005548523578     0.00023579132904     0.49674056489843     0.00881461500431     0.49444482009726
                  93     0.00062452293387    -0.00018735688016    -0.00012490458677     0.49104850461453     0.01211574491708     0.49683575046839
                  94    -0.00453773204886    -0.00073541925065    -0.00004162619675     0.49117524628833     0.01580456174705     0.49302019196462
                  95     0.00047886737456     0.00095772897011     0.00045804705392     0.48638351030606     0.01842598376015     0.49519050593379
                  96    -0.00294051836174    -0.00004854272742    -0.00052011095700     0.48741331484050     0.02096409864893     0.49162258651057
                  97     0.00099868229420     0.00061030199832     0.00060337055274     0.48724599486788     0.01799708717664     0.49475691795548
                  98    -0.00310739163050     0.00033299513312     0.00002081165453     0.48695109261186     0.02026312640475     0.49278578098339
                  99     0.00054102795311    -0.00040230476113     0.00027051397656     0.49298744537699     0.01075813275994     0.49625442186308
                 100    -0.00273427498926     0.00014571335340     0.00012488725456     0.49200721570804     0.01366885564851     0.49432392864345
                 101     0.00018730489074     0.00022200253402     0.00016649323621     0.49891779396462     0.00168574401665     0.49939646201873
                 102    -0.00515423140622    -0.00006243063323    -0.00004162619675     0.49879284029416     0.00680539810283     0.49440176160301
                 103     0.00043689320388     0.00004165507015     0.00006241331484     0.49315533980583     0.00927877947295     0.49756588072122
                 104    -0.00425787917905     0.00034680606930     0.00020810210877     0.49325749167592     0.01302589930582     0.49371660901827
                 105    -0.00008320621273    -0.00004160310637    -0.00000000000000     0.49941755651089     0.00079045902094     0.49979198446817
                 106    -0.00552585907671    -0.00004859423811    -0.00000000000000     0.49941686914266     0.00634501909059     0.49423811176675
                 107    -0.00004162042175    -0.00001387443635     0.00004162042175     0.49987513873474     0.00016648168701     0.49995837957825
                 108    -0.00577200520113    -0.00009018816783    -0.00006243929513     0.49985430831136     0.00598707195922     0.49415861972941
                 109     0.00000000000000    -0.00000000000000     0.00000000000000     0.50000000000000     0.00000000000000     0.50000000000000
                 110    -0.00575549545801     0.00003467165939     0.00000000000000     0.50000000000000     0.00582483877678     0.49417516122322
                 111     0.00000000000000     0.00013867702122     0.00000000000000     0.50000000000000     0.00000000000000     0.50000000000000
                 112    -0.00579257717655     0.00006937218176     0.00000000000000     0.50000000000000     0.00586194935831     0.49413805064169
                 113     0.00000000000000     0.00020815986678     0.00000000000000     0.50000000000000     0.00000000000000     0.50000000000000
                 114    -0.00572519083969     0.00010409437890     0.00000000000000     0.50000000000000     0.00579458709230     0.49420541290770
                 115     0.00000000000000     0.00010407271213     0.00000000000000     0.50000000000000     0.00000000000000     0.50000000000000
                 116    -0.00575589459085    -0.00006934812760     0.00000000000000     0.50000000000000     0.00582524271845     0.49417475728155
                 117     0.00000000000000     0.00003468127905     0.00000000000000     0.50000000000000     0.00000000000000     0.50000000000000
                 118    -0.00579056865465     0.00003467406380     0.00000000000000     0.50000000000000     0.00585991678225     0.49414008321775
                 119     0.00000000000000    -0.00003471498993     0.00000000000000     0.50000000000000     0.00000000000000     0.50000000000000
                 120    -0.00582524271845     0.00000000000000     0.00000000000000     0.50000000000000     0.00589459084605     0.49410540915395
                 121     0.00000000000000     0.00006933851061     0.00000000000000     0.50000000000000     0.00000000000000     0.50000000000000
                 122    -0.00568970302526     0.00000000000000     0.00000000000000     0.50000000000000     0.00575908964752     0.49424091035248
                 123     0.00000000000000    -0.00017333425778     0.00000000000000     0.50000000000000     0.00000000000000     0.50000000000000
                 124    -0.00579338097551     0.00006938180809     0.00000000000000     0.50000000000000     0.00586276278360     0.49413723721640
                 125     0.00000000000000     0.00006937699459     0.00000000000000     0.50000000000000     0.00000000000000     0.50000000000000
                 126    -0.00579539144919     0.00003470294281     0.00000000000000     0.50000000000000     0.00586479733481     0.49413520266519
                 127     0.00000000000000     0.00003469571855     0.00000000000000     0.50000000000000     0.00000000000000     0.50000000000000
                 128    -0.00578976563583     0.00003466925530     0.00000000000000     0.50000000000000     0.00585910414644     0.49414089585356
                 129     0.00000000000000    -0.00003466685156     0.00000000000000     0.50000000000000     0.00000000000000     0.50000000000000
                 130    -0.00575789108567    -0.00017343045439     0.00000000000000     0.50000000000000     0.00582726326743     0.49417273673257
                 131     0.00000000000000    -0.00003470053439     0.00000000000000     0.50000000000000     0.00000000000000     0.50000000000000
                 132    -0.00572399916742     0.00013876361618     0.00000000000000     0.50000000000000     0.00579338097551     0.49420661902449
                 133     0.00000000000000    -0.00000000000000     0.00000000000000     0.50000000000000     0.00000000000000     0.50000000000000
                 134    -0.00578976563583     0.00003466925530     0.00000000000000     0.50000000000000     0.00585910414644     0.49414089585356
                 135     0.00000000000000     0.00024266796090     0.00000000000000     0.50000000000000     0.00000000000000     0.50000000000000
                 136    -0.00568930826337    -0.00003469090404     0.00000000000000     0.50000000000000     0.00575869007146     0.49424130992854
                 137     0.00000000000000    -0.00010407271213     0.00000000000000     0.50000000000000     0.00000000000000     0.50000000000000
                 138    -0.00575869007146     0.00010407271213     0.00000000000000     0.50000000000000     0.00575869007146     0.49424130992854
                 139     0.00000000000000     0.00003467646855     0.00000000000000     0.50000000000000     0.00000000000000     0.50000000000000
                 140    -0.00572439633639     0.00003469331113     0.00000000000000     0.50000000000000     0.00579378295865     0.49420621704135
                 141     0.00000000000000     0.00024266796090     0.00000000000000     0.50000000000000     0.00000000000000     0.50000000000000
                 142    -0.00572479356047     0.00006939143710     0.00000000000000     0.50000000000000     0.00579418499757     0.49420581500243
                 143     0.00000000000000    -0.00006936736959     0.00000000000000     0.50000000000000     0.00000000000000     0.50000000000000
                 144    -0.00575908964752     0.00013877324452     0.00000000000000     0.50000000000000     0.00582847626978     0.49417152373022
                 145     0.00000000000000    -0.00000000000000     0.00000000000000     0.50000000000000     0.00000000000000     0.50000000000000
                 146    -0.00582483877678     0.00003467165939     0.00000000000000     0.50000000000000     0.00589418209556     0.49410581790444
                 147     0.00000000000000    -0.00013873473918     0.00000000000000     0.50000000000000     0.00000000000000     0.50000000000000
                 148    -0.00575669302261    -0.00006935774726     0.00000000000000     0.50000000000000     0.00582605076987     0.49417394923013
                 149     0.00000000000000     0.00020818875781     0.00000000000000     0.50000000000000     0.00000000000000     0.50000000000000
                 150    -0.00568694084194     0.00010402940565     0.00000000000000     0.50000000000000     0.00575629377904     0.49424370622096
                 151     0.00000000000000    -0.00010408715564     0.00000000000000     0.50000000000000     0.00000000000000     0.50000000000000
                 152    -0.00579137189624     0.00017339436815     0.00000000000000     0.50000000000000     0.00579137189624     0.49420862810376
                 153     0.00000000000000    -0.00000000000000     0.00000000000000     0.50000000000000     0.00000000000000     0.50000000000000
                 154    -0.00579137189624    -0.00003467887363     0.00000000000000     0.50000000000000     0.00586072964350     0.49413927035650
                 155     0.00000000000000    -0.00013879250520     0.00000000000000     0.50000000000000     0.00000000000000     0.50000000000000
                 156    -0.00568772976347    -0.00003468127905     0.00000000000000     0.50000000000000     0.00575709232156     0.49424290767844
                 157     0.00000000000000     0.00003466685156     0.00000000000000     0.50000000000000     0.00000000000000     0.50000000000000
                 158    -0.00572638300826    -0.00006941070313     0.00000000000000     0.50000000000000     0.00579579371139     0.49420420628861
                 159     0.00000000000000    -0.00006936736959     0.00000000000000     0.50000000000000     0.00000000000000     0.50000000000000
                 160    -0.00572161731049     0.00000000000000     0.00000000000000     0.50000000000000     0.00579097024759     0.49420902975241
                 161     0.00000000000000    -0.00000000000000     0.00000000000000     0.50000000000000     0.00000000000000     0.50000000000000
                 162    -0.00579137189624     0.00010403662089     0.00000000000000     0.50000000000000     0.00586072964350     0.49413927035650
                 163     0.00000000000000     0.00003466685156     0.00000000000000     0.50000000000000     0.00000000000000     0.50000000000000
                 164    -0.00579498924283     0.00000000000000     0.00000000000000     0.50000000000000     0.00586439031161     0.49413560968839
                 165     0.00000000000000    -0.00017347859274     0.00000000000000     0.50000000000000     0.00000000000000     0.50000000000000
                 166    -0.00572122052705     0.00003467406380     0.00000000000000     0.50000000000000     0.00579056865465     0.49420943134535
                 167     0.00000000000000    -0.00006935774726     0.00000000000000     0.50000000000000     0.00000000000000     0.50000000000000
                 168    -0.00579097024759     0.00013870587419     0.00000000000000     0.50000000000000     0.00586032318469     0.49413967681531
                 169     0.00000000000000     0.00003468609088     0.00000000000000     0.50000000000000     0.00000000000000     0.50000000000000
                 170    -0.00576068850639     0.00006940588562     0.00000000000000     0.50000000000000     0.00583009439200     0.49416990560800
                 171     0.00000000000000    -0.00013875398918     0.00000000000000     0.50000000000000     0.00000000000000     0.50000000000000
                 172    -0.00575669302261     0.00006935774726     0.00000000000000     0.50000000000000     0.00582605076987     0.49417394923013
                 173     0.00000000000000     0.00003468127905     0.00000000000000     0.50000000000000     0.00000000000000     0.50000000000000
                 174    -0.00579016711740     0.00006934331877     0.00000000000000     0.50000000000000     0.00585951043617     0.49414048956383
                 175     0.00000000000000    -0.00003468609088     0.00000000000000     0.50000000000000     0.00000000000000     0.50000000000000
                 176    -0.00579579371139     0.00006941070313     0.00000000000000     0.50000000000000     0.00586520441452     0.49413479558548
                 177     0.00000000000000    -0.00010405827263     0.00000000000000     0.50000000000000     0.00000000000000     0.50000000000000
                 178    -0.00575669302261     0.00013871549452     0.00000000000000     0.50000000000000     0.00582605076987     0.49417394923013
                 179     0.00000000000000     0.00010411605470     0.00000000000000     0.50000000000000     0.00000000000000     0.50000000000000
                 180    -0.00578615480563    -0.00006929526713     0.00000000000000     0.50000000000000     0.00585545007276     0.49414454992724
                 181     0.00000000000000    -0.00006937699459     0.00000000000000     0.50000000000000     0.00000000000000     0.50000000000000
                 182    -0.00569128262077    -0.00006940588562     0.00000000000000     0.50000000000000     0.00576068850639     0.49423931149361
                 183     0.00000000000000     0.00013877324452     0.00000000000000     0.50000000000000     0.00000000000000     0.50000000000000
                 184    -0.00572082379863    -0.00006934331877     0.00000000000000     0.50000000000000     0.00579016711740     0.49420983288260
                 185     0.00000000000000    -0.00010404383714     0.00000000000000     0.50000000000000     0.00000000000000     0.50000000000000
                 186    -0.00572122052705    -0.00003467406380     0.00000000000000     0.50000000000000     0.00579056865465     0.49420943134535
                 187     0.00000000000000    -0.00006940588562     0.00000000000000     0.50000000000000     0.00000000000000     0.50000000000000
                 188    -0.00572320499480    -0.00006937218176     0.00000000000000     0.50000000000000     0.00579257717655     0.49420742282345
                 189     0.00000000000000     0.00003467646855     0.00000000000000     0.50000000000000     0.00000000000000     0.50000000000000
                 190    -0.00579297904815     0.00003468849729     0.00000000000000     0.50000000000000     0.00586235604274     0.49413764395726
                 191     0.00000000000000     0.00010398613518     0.00000000000000     0.50000000000000     0.00000000000000     0.50000000000000
                 192    -0.00575908964752     0.00020815986678     0.00000000000000     0.50000000000000     0.00582847626978     0.49417152373022
                 193     0.00000000000000    -0.00003469090404     0.00000000000000     0.50000000000000     0.00000000000000     0.50000000000000
                 194    -0.00575749167592    -0.00013873473918     0.00000000000000     0.50000000000000     0.00582685904550     0.49417314095450
                 195     0.00000000000000     0.00010404383714     0.00000000000000     0.50000000000000     0.00000000000000     0.50000000000000
                 196    -0.00569009784193     0.00010408715564     0.00000000000000     0.50000000000000     0.00575948927902     0.49424051072098
                 197     0.00000000000000    -0.00017343045439     0.00000000000000     0.50000000000000     0.00000000000000     0.50000000000000
                 198    -0.00579016711740     0.00006934331877     0.00000000000000     0.50000000000000     0.00585951043617     0.49414048956383
                 199     0.00000000000000     0.00027746947836     0.00000000000000     0.50000000000000     0.00000000000000     0.50000000000000
                 200    -0.00572439633639     0.00003469331113     0.00000000000000     0.50000000000000     0.00579378295865     0.49420621704135
                 201     0.00004854705597    -0.00015951175532     0.00002774117484     0.49979194118871     0.00042998821000     0.49977807060129
                 202    -0.00545801526718    -0.00010409437890    -0.00003122831367     0.49981609993060     0.00582234559334     0.49436155447606
                 203     0.00014566137199     0.00006936977734    -0.00007283068600     0.49949018519803     0.00070402996463     0.49980578483734
                 204    -0.00556189263101     0.00001387515607     0.00021847690387     0.49953877098072     0.00633522429972     0.49412600471956
                 205     0.00000000000000    -0.00010402940565     0.00000000000000     0.50000000000000     0.00000000000000     0.50000000000000
                 206    -0.00575869007146    -0.00003469090404     0.00000000000000     0.50000000000000     0.00582807187955     0.49417192812045
                 207     0.00000000000000     0.00010405827263     0.00000000000000     0.50000000000000     0.00000000000000     0.50000000000000
                 208    -0.00565540212338    -0.00020817431129     0.00000000000000     0.50000000000000     0.00572479356047     0.49427520643953
                 209     0.00000000000000    -0.00006937699459     0.00000000000000     0.50000000000000     0.00000000000000     0.50000000000000
                 210    -0.00572161731049     0.00000000000000     0.00000000000000     0.50000000000000     0.00579097024759     0.49420902975241
                 211     0.00000000000000     0.00003469571855     0.00000000000000     0.50000000000000     0.00000000000000     0.50000000000000
                 212    -0.00582483877678    -0.00003467165939     0.00000000000000     0.50000000000000     0.00582483877678     0.49417516122322
                 213     0.00000000000000     0.00024270161570     0.00000000000000     0.50000000000000     0.00000000000000     0.50000000000000
                 214    -0.00569207274747     0.00006941552131     0.00000000000000     0.50000000000000     0.00576148826878     0.49423851173122
                 215     0.00000000000000    -0.00013871549452     0.00000000000000     0.50000000000000     0.00000000000000     0.50000000000000
                 216    -0.00579257717655    -0.00006937218176     0.00000000000000     0.50000000000000     0.00586194935831     0.49413805064169
                 217     0.00000000000000     0.00010397171969     0.00000000000000     0.50000000000000     0.00000000000000     0.50000000000000
                 218    -0.00579378295865    -0.00010407993339     0.00000000000000     0.50000000000000     0.00586316958090     0.49413683041910
                 219     0.00000000000000     0.00003471498993     0.00000000000000     0.50000000000000     0.00000000000000     0.50000000000000
                 220    -0.00575589459085     0.00013869625520     0.00000000000000     0.50000000000000     0.00582524271845     0.49417475728155
                 221     0.00000000000000    -0.00000000000000     0.00000000000000     0.50000000000000     0.00000000000000     0.50000000000000
                 222    -0.00575789108567     0.00003468609088     0.00000000000000     0.50000000000000     0.00582726326743     0.49417273673257
                 223     0.00000000000000     0.00006939625260     0.00000000000000     0.50000000000000     0.00000000000000     0.50000000000000
                 224    -0.00575310182297    -0.00003465723990     0.00000000000000     0.50000000000000     0.00582241630277     0.49417758369723
                 225     0.00000000000000     0.00010411605470     0.00000000000000     0.50000000000000     0.00000000000000     0.50000000000000
                 226    -0.00572280799112     0.00003468368479     0.00000000000000     0.50000000000000     0.00579217536071     0.49420782463929
                 227     0.00000000000000     0.00010404383714     0.00000000000000     0.50000000000000     0.00000000000000     0.50000000000000
                 228    -0.00572280799112    -0.00010405105438     0.00000000000000     0.50000000000000     0.00579217536071     0.49420782463929
                 229     0.00000000000000    -0.00003467646855     0.00000000000000     0.50000000000000     0.00000000000000     0.50000000000000
                 230    -0.00575669302261     0.00006935774726     0.00000000000000     0.50000000000000     0.00582605076987     0.49417394923013
                 231     0.00000000000000     0.00003470053439     0.00000000000000     0.50000000000000     0.00000000000000     0.50000000000000
                 232    -0.00579338097551    -0.00006938180809     0.00000000000000     0.50000000000000     0.00586276278360     0.49413723721640
                 233     0.00000000000000    -0.00000000000000     0.00000000000000     0.50000000000000     0.00000000000000     0.50000000000000
                 234    -0.00575908964752     0.00006938662226     0.00000000000000     0.50000000000000     0.00582847626978     0.49417152373022
                 235     0.00000000000000    -0.00000000000000     0.00000000000000     0.50000000000000     0.00000000000000     0.50000000000000
                 236    -0.00568694084194    -0.00003467646855     0.00000000000000     0.50000000000000     0.00575629377904     0.49424370622096
                 237     0.00000000000000    -0.00024293746096     0.00000000000000     0.50000000000000     0.00000000000000     0.50000000000000
                 238    -0.00572241104252    -0.00013872511618     0.00000000000000     0.50000000000000     0.00579177360061     0.49420822639939
                 239     0.00000000000000    -0.00003467165939     0.00000000000000     0.50000000000000     0.00000000000000     0.50000000000000
                 240    -0.00568970302526     0.00000000000000     0.00000000000000     0.50000000000000     0.00575908964752     0.49424091035248
                 241     0.00000000000000    -0.00024266796090     0.00000000000000     0.50000000000000     0.00000000000000     0.50000000000000
                 242    -0.00572360205356    -0.00024281948106     0.00000000000000     0.50000000000000     0.00579297904815     0.49420702095185
                 243     0.00000000000000    -0.00003467646855     0.00000000000000     0.50000000000000     0.00000000000000     0.50000000000000
                 244    -0.00579700083310     0.00010413773952     0.00000000000000     0.50000000000000     0.00586642599278     0.49413357400722
                 245     0.00000000000000    -0.00010402940565     0.00000000000000     0.50000000000000     0.00000000000000     0.50000000000000
                 246    -0.00579217536071     0.00003468368479     0.00000000000000     0.50000000000000     0.00586154273030     0.49413845726970
                 247     0.00000000000000    -0.00027750797835     0.00000000000000     0.50000000000000     0.00000000000000     0.50000000000000
                 248    -0.00572122052705    -0.00010402219140     0.00000000000000     0.50000000000000     0.00579056865465     0.49420943134535
                 249     0.00000000000000     0.00003467165939     0.00000000000000     0.50000000000000     0.00000000000000     0.50000000000000
                 250    -0.00579297904815    -0.00003468849729     0.00000000000000     0.50000000000000     0.00579297904815     0.49420702095185
                 251     0.00000000000000    -0.00017345452022     0.00000000000000     0.50000000000000     0.00000000000000     0.50000000000000
                 252    -0.00572519083969    -0.00003469812630     0.00000000000000     0.50000000000000     0.00579458709230     0.49420541290770
                 253     0.00000000000000     0.00010410160316     0.00000000000000     0.50000000000000     0.00000000000000     0.50000000000000
                 254    -0.00578816026619     0.00003465964231     0.00000000000000     0.50000000000000     0.00585747955081     0.49414252044919
                 255     0.00000000000000    -0.00003468127905     0.00000000000000     0.50000000000000     0.00000000000000     0.50000000000000
                 256    -0.00575709232156    -0.00010404383714     0.00000000000000     0.50000000000000     0.00582645487966     0.49417354512034
                 257     0.00000000000000     0.00006938662226     0.00000000000000     0.50000000000000     0.00000000000000     0.50000000000000
                 258    -0.00582888071612     0.00017347859274     0.00000000000000     0.50000000000000     0.00589827215322     0.49410172784678
                 259     0.00000000000000     0.00003466685156     0.00000000000000     0.50000000000000     0.00000000000000     0.50000000000000
                 260    -0.00575908964752     0.00006938662226     0.00000000000000     0.50000000000000     0.00582847626978     0.49417152373022
                 261     0.00000000000000    -0.00006937699459     0.00000000000000     0.50000000000000     0.00000000000000     0.50000000000000
                 262    -0.00571963394343     0.00003466444814     0.00000000000000     0.50000000000000     0.00578896283971     0.49421103716029
                 263     0.00000000000000     0.00003469571855     0.00000000000000     0.50000000000000     0.00000000000000     0.50000000000000
                 264    -0.00572558817406     0.00013880213755     0.00000000000000     0.50000000000000     0.00579498924283     0.49420501075717
                 265     0.00000000000000     0.00006935774726     0.00000000000000     0.50000000000000     0.00000000000000     0.50000000000000
                 266    -0.00575749167592    -0.00013873473918     0.00000000000000     0.50000000000000     0.00582685904550     0.49417314095450
                 267     0.00000000000000    -0.00003468609088     0.00000000000000     0.50000000000000     0.00000000000000     0.50000000000000
                 268    -0.00568536365527     0.00010400055467     0.00000000000000     0.50000000000000     0.00575469735839     0.49424530264161
                 269     0.00000000000000    -0.00027754648904     0.00000000000000     0.50000000000000     0.00000000000000     0.50000000000000
                 270    -0.00569128262077    -0.00020821765686     0.00000000000000     0.50000000000000     0.00576068850639     0.49423931149361
                 271     0.00000000000000    -0.00003467165939     0.00000000000000     0.50000000000000     0.00000000000000     0.50000000000000
                 272    -0.00579257717655     0.00006937218176     0.00000000000000     0.50000000000000     0.00586194935831     0.49413805064169
                 273     0.00000000000000    -0.00006936736959     0.00000000000000     0.50000000000000     0.00000000000000     0.50000000000000
                 274    -0.00575549545801     0.00010401497816     0.00000000000000     0.50000000000000     0.00582483877678     0.49417516122322
                 275     0.00000000000000    -0.00003469571855     0.00000000000000     0.50000000000000     0.00000000000000     0.50000000000000
                 276    -0.00579378295865    -0.00003469331113     0.00000000000000     0.50000000000000     0.00586316958090     0.49413683041910
                 277     0.00000000000000    -0.00013877324452     0.00000000000000     0.50000000000000     0.00000000000000     0.50000000000000
                 278    -0.00575589459085    -0.00006934812760     0.00000000000000     0.50000000000000     0.00582524271845     0.49417475728155
                 279     0.00000000000000    -0.00010402940565     0.00000000000000     0.50000000000000     0.00000000000000     0.50000000000000
                 280    -0.00579137189624    -0.00003467887363     0.00000000000000     0.50000000000000     0.00586072964350     0.49413927035650
                 281     0.00000000000000     0.00013873473918     0.00000000000000     0.50000000000000     0.00000000000000     0.50000000000000
                 282    -0.00572598556358     0.00003470294281     0.00000000000000     0.50000000000000     0.00579539144919     0.49420460855081
                 283     0.00000000000000    -0.00020801553183     0.00000000000000     0.50000000000000     0.00000000000000     0.50000000000000
                 284    -0.00569049271339     0.00006939625260     0.00000000000000     0.50000000000000     0.00575988896600     0.49424011103400
                 285     0.00000000000000     0.00020807324178     0.00000000000000     0.50000000000000     0.00000000000000     0.50000000000000
                 286    -0.00582605076987     0.00020807324178     0.00000000000000     0.50000000000000     0.00589540851713     0.49410459148287
                 287     0.00000000000000    -0.00010405827263     0.00000000000000     0.50000000000000     0.00000000000000     0.50000000000000
                 288    -0.00579498924283    -0.00006940106878     0.00000000000000     0.50000000000000     0.00586439031161     0.49413560968839
                 289     0.00000000000000    -0.00000000000000     0.00000000000000     0.50000000000000     0.00000000000000     0.50000000000000
                 290    -0.00578976563583     0.00003466925530     0.00000000000000     0.50000000000000     0.00585910414644     0.49414089585356
                 291     0.00000000000000    -0.00010404383714     0.00000000000000     0.50000000000000     0.00000000000000     0.50000000000000
                 292    -0.00579097024759     0.00000000000000     0.00000000000000     0.50000000000000     0.00586032318469     0.49413967681531
                 293     0.00000000000000     0.00020821765686     0.00000000000000     0.50000000000000     0.00000000000000     0.50000000000000
                 294    -0.00575709232156    -0.00003468127905     0.00000000000000     0.50000000000000     0.00582645487966     0.49417354512034
                 295     0.00000000000000    -0.00006939625260     0.00000000000000     0.50000000000000     0.00000000000000     0.50000000000000
                 296    -0.00578976563583    -0.00003466925530     0.00000000000000     0.50000000000000     0.00585910414644     0.49414089585356
                 297     0.00000000000000    -0.00024266796090     0.00000000000000     0.50000000000000     0.00000000000000     0.50000000000000
                 298    -0.00568930826337     0.00003469090404     0.00000000000000     0.50000000000000     0.00575869007146     0.49424130992854
                 299     0.00000000000000     0.00027731558514     0.00000000000000     0.50000000000000     0.00000000000000     0.50000000000000
                 300    -0.00586194935831     0.00006937218176     0.00000000000000     0.50000000000000     0.00586194935831     0.49413805064169
 l=          20
                   1     0.00089849640263     0.00004868975483    -0.00050641384346     0.42743826252655     0.09055147567413     0.48201026179933
                   2     0.00007989696352     0.00057966971724    -0.00017341525871     0.43935995858165     0.08354737808777     0.47709266333059
                   3     0.00027381015263     0.00006923949726     0.00024988586437     0.42184328299787     0.10233461449298     0.47582210250915
                   4    -0.00039188379100     0.00086683844421    -0.00017332851030     0.42414978164819     0.10058716104668     0.47526305730512
                   5     0.00079408055164     0.00130048302930    -0.00086698243369     0.41283149882751     0.11207131136113     0.47509718981136
                   6    -0.00064151779919    -0.00010059543017    -0.00047160550612     0.41392792269441     0.11204274204162     0.47402933526397
                   7     0.00075345823374     0.00024643692296     0.00030895209641     0.41889187795710     0.10741283100555     0.47369529103734
                   8    -0.00083583305597     0.00020811389928     0.00035379331445     0.41855724936670     0.10782620676245     0.47361654387085
                   9    -0.00106476411516     0.00040910048807     0.00019423609862     0.41617781935511     0.11010859303225     0.47371358761264
                  10    -0.00065222391507    -0.00074587420308     0.00008662115743     0.41507448717775     0.11073710642146     0.47418840640079
                  11     0.00139689100093    -0.00036744435604    -0.00030849869306     0.43258885016532     0.09056323049993     0.47684791933475
                  12    -0.00081515779019     0.00049940296687    -0.00007626585410     0.42868822189419     0.09315969632479     0.47815208178102
                  13     0.00032260459882    -0.00009713017543    -0.00019779954848     0.44191929964870     0.07835899257005     0.47972170778125
                  14    -0.00037499678499    -0.00077737156675    -0.00051031202694     0.44218381241339     0.07847548989939     0.47934069768722
                  15     0.00036082103313    -0.00024278362507    -0.00035378056728     0.43383063462001     0.08713638191141     0.47903298346858
                  16    -0.00031909619299     0.00013182184522    -0.00095019995940     0.43329029579091     0.08773960056931     0.47897010363978
                  17    -0.00047126776981    -0.00006573264577    -0.00028064259712     0.44811169714345     0.06987207967889     0.48201622317766
                  18    -0.00022540549013     0.00079429227301    -0.00006271512382     0.44941098506439     0.06943923123377     0.48114978370184
                  19     0.00009018769293    -0.00075963188674     0.00088458606060     0.41621392089480     0.10852681061629     0.47525926848891
                  20     0.00007967757865     0.00056913142569    -0.00020817960921     0.41967360892150     0.10643671640396     0.47388967467453
                  21     0.00149832140854    -0.00124167795313    -0.00003118096374     0.41566997250684     0.11012693924822     0.47420308824494
                  22     0.00005897816096     0.00018388588105    -0.00000342265059     0.41734495899242     0.10855348509715     0.47410155591043
                  23     0.00068666721186    -0.00014219950795     0.00019763808953     0.41578976530216     0.11131733062996     0.47289290406788
                  24     0.00028081425161     0.00040556276832    -0.00070022786220     0.41570595828927     0.11157975013899     0.47271429157174
                  25     0.00073210639371    -0.00180414150290    -0.00119351635269     0.42110690791354     0.10503701374232     0.47385607834413
                  26    -0.00004509097282     0.00182477799257     0.00041632528592     0.42100161320186     0.10523758474880     0.47376080204934
                  27     0.00157087824109     0.00051679627989    -0.00001050635935     0.42566812823073     0.09892895245157     0.47540291931770
                  28    -0.00034027486940     0.00071791453185    -0.00062123225329     0.42239368760573     0.10034756803476     0.47725874435951
                  29     0.00062389976721     0.00007271459840    -0.00023228233255     0.42981574706551     0.09362398838364     0.47656026455085
                  30     0.00011795847288    -0.00006926505880     0.00002427062011     0.43061223356601     0.09175041381686     0.47763735261713
                  31    -0.00009019733386     0.00041995590849    -0.00067301561993     0.40979377842044     0.11647521039862     0.47373101118094
                  32    -0.00021497158607     0.00080851334221    -0.00040936443477     0.41248343056520     0.11467859986681     0.47283796956799
                  33     0.00091923797090    -0.00103367537293     0.00001043541537     0.41590334311468     0.10952723354135     0.47456942334397
                  34    -0.00061052622787    -0.00024279830413    -0.00056532505687     0.41625411926312     0.10890120357505     0.47484467716183
                  35    -0.00016299958910    -0.00043352103503     0.00047878140870     0.41029793876058     0.11664184180174     0.47306021943768
                  36     0.00018367088872    -0.00001040776268     0.00032577517067     0.40897826761243     0.11735231802817     0.47366941435940
                  37     0.00069387151154     0.00014224910744    -0.00120778719858     0.41522254565265     0.11065135209227     0.47412610225508
                  38    -0.00044749246708     0.00033983490410    -0.00038870636087     0.41519710851586     0.11056491898593     0.47423797249821
                  39    -0.00003478184403    -0.00175148286047     0.00040583375742     0.40762957937881     0.12072714641480     0.47164327420640
                  40    -0.00009350723634     0.00138372890860    -0.00019432456453     0.40833994067559     0.11939647566063     0.47226358366378
                  41     0.00044369528068    -0.00026008771801     0.00059993539634     0.42222569522648     0.10349681310749     0.47427749166603
                  42    -0.00044399038426     0.00070760852783     0.00018730633506     0.42071480596918     0.10409262450136     0.47519256952946
                  43     0.00005902293562    -0.00007980039143    -0.00007287352927     0.41847390458701     0.10732065717391     0.47420543823908
                  44    -0.00027062998335    -0.00024643062187     0.00009024932108     0.41937932569666     0.10617336194694     0.47444731235640
                  45     0.00081833510182    -0.00063118097623     0.00046826866566     0.40385238888969     0.12323002655363     0.47291758455668
                  46     0.00012821512552    -0.00084619339277     0.00006586676854     0.40592347420888     0.12128109731733     0.47279542847379
                  47     0.00031916431076     0.00071117278984     0.00079427568710     0.40324997688170     0.12537088896805     0.47137913415025
                  48    -0.00028777581948     0.00010093889131    -0.00039539118103     0.40496505313313     0.12396004683154     0.47107490003533
                  49    -0.00066580436148     0.00035710484446     0.00051323777109     0.40067844768243     0.12922622291311     0.47009532940446
                  50    -0.00037109736798     0.00022889980694    -0.00075971784453     0.40217168161455     0.12743386038038     0.47039445800507
                  51    -0.00010411774610    -0.00000714690182     0.00014920027126     0.38694767389078     0.14517759899529     0.46787472711393
                  52    -0.00089104512761     0.00141473705843     0.00002055501068     0.38831608122141     0.14430162847770     0.46738229030089
                  53    -0.00095762932737    -0.00247367438129    -0.00005904388336     0.40976602694338     0.11904131416657     0.47119265889005
                  54     0.00015962626104     0.00158836483796     0.00053418432445     0.40806607206807     0.12083068773452     0.47110324019741
                  55     0.00042317440779    -0.00125533965686     0.00184842247186     0.41147959836015     0.11548056595210     0.47303983568774
                  56    -0.00076262099009     0.00067255135132    -0.00020447794860     0.41338597340738     0.11521150242826     0.47140252416436
                  57     0.00142967843176    -0.00012839559007    -0.00060391430305     0.38709334568920     0.14746510438712     0.46544154992368
                  58    -0.00037471113248    -0.00065902314651     0.00127318488174     0.38966589021306     0.14492993243448     0.46540417735246
                  59     0.00080846369213    -0.00035720726992    -0.00090190500645     0.38946400989125     0.14443774140211     0.46609824870663
                  60     0.00015268303350     0.00025664604320    -0.00060700419342     0.38740618607923     0.14558294169498     0.46701087222579
                  61     0.00019406417287     0.00069699125633     0.00010395295846     0.40174769503229     0.12819947628878     0.47005282867893
                  62     0.00004510225686    -0.00139736477302     0.00130367362268     0.39599460798307     0.13297665944912     0.47102873256781
                  63     0.00081559507504     0.00080514032338     0.00036096192777     0.41413647213960     0.11438880107935     0.47147472678105
                  64     0.00048544524703     0.00076648007844    -0.00052030148691     0.41258667139694     0.11444220622175     0.47297112238130
                  65    -0.00024626666033    -0.00156364065414     0.00071416020884     0.42314062079141     0.10186092745422     0.47499845175437
                  66     0.00065207950031     0.00091572339518     0.00053764956966     0.41768399816445     0.10667128572779     0.47564471610775
                  67    -0.00028451790327     0.00068003584118     0.00071105411060     0.44420682793310     0.07566838430921     0.48012478775769
                  68     0.00020120918646     0.00008674892722    -0.00034350581207     0.44065945336181     0.07761453265470     0.48172601398349
                  69     0.00052034960133     0.00070393039214     0.00072862545729     0.44888277510812     0.06843154082728     0.48268568406460
                  70    -0.00030562629632     0.00028116900804    -0.00073916987305     0.44853615316077     0.06887181272749     0.48259203411174
                  71    -0.00023238861659    -0.00010746531689     0.00025667416014     0.45744727675421     0.05779464542070     0.48475807782510
                  72    -0.00018026184720     0.00037453786246    -0.00054438376753     0.45604793246960     0.05792655379125     0.48602551373915
                  73     0.00076639878472    -0.00031207162801    -0.00066587190045     0.45907224783278     0.05512176719732     0.48580598496989
                  74     0.00013171980228     0.00038845204877     0.00013522980935     0.46022160035345     0.05430364478288     0.48547475486367
                  75     0.00002421232244     0.00110026286636     0.00070489544120     0.44837949733353     0.06891303240077     0.48270747026570
                  76    -0.00056906973394    -0.00039892739205    -0.00029136558511     0.44914138092420     0.06791348702212     0.48294513205368
                  77     0.00016653239226     0.00090824295208    -0.00035021455867     0.45102260431049     0.06568096334585     0.48329643234366
                  78    -0.00025661548101    -0.00082553214738     0.00046852093400     0.45292760936557     0.06414484965565     0.48292754097878
                  79     0.00004154704947    -0.00049589900538    -0.00081506036009     0.43102921172325     0.09062579769848     0.47834499057827
                  80    -0.00042296515425    -0.00010411863378     0.00024269295991     0.43347184646692     0.08867658722250     0.47785156631058
                  81     0.00076690642844     0.00077739196028    -0.00034001057343     0.43258926862024     0.09072648819878     0.47668424318098
                  82    -0.00038861783183     0.00015258945222     0.00031924901372     0.43064926566996     0.09128128547186     0.47806944885818
                  83     0.00045062797746     0.00071812237226     0.00094665872694     0.44654899645541     0.07364185353436     0.47980915001023
                  84    -0.00029112425406    -0.00029831897670    -0.00006262181905     0.44419723791288     0.07421616113650     0.48158660095062
                  85     0.00061718398267     0.00016635570226     0.00077659380967     0.46010500921594     0.05576568609473     0.48412930468933
                  86    -0.00033970016098     0.00119000339328     0.00003463577852     0.45528868578478     0.05882630364406     0.48588501057116
                  87     0.00087757206593     0.00009015135229     0.00023932175720     0.48612253447002     0.02022138031206     0.49365608521792
                  88    -0.00193204030658    -0.00047867190725    -0.00054109050793     0.48479404261889     0.02198696547370     0.49321899190740
                  89     0.00015954975895     0.00007973829065    -0.00022549545693     0.48885325213897     0.01592732545481     0.49521942240622
                  90    -0.00254918228742    -0.00036070046056    -0.00029479303833     0.48936331828689     0.01775683639814     0.49287984531497
                  91     0.00076969643875    -0.00088420453707     0.00073508898488     0.47893214733305     0.02880012979255     0.49226772287441
                  92    -0.00121390854531     0.00039874741453     0.00005201276844     0.47963945384617     0.02961314192552     0.49074740422831
                  93     0.00047878744788     0.00055150306648     0.00015262024635     0.46840299690804     0.04210169128751     0.48949531180445
                  94    -0.00150592980802    -0.00027760163032     0.00053085174084     0.46992017570793     0.04204380070795     0.48803602358412
                  95     0.00131083163694     0.00069710766200    -0.00092242727693     0.45834556902045     0.05556697734656     0.48608745363299
                  96    -0.00041982857450    -0.00011787203351     0.00056899032990     0.46068718751054     0.05410895312584     0.48520385936362
                  97     0.00154368846369    -0.00011441331642    -0.00011092881115     0.46209744597199     0.05236493037844     0.48553762364957
                  98    -0.00092933056504     0.00045769716365    -0.00003463871227     0.46042839142719     0.05292856568290     0.48664304288990
                  99    -0.00007282418924     0.00033645099825     0.00049246982452     0.47019225968236     0.04206171437715     0.48774602594050
                 100    -0.00065560754792    -0.00018731980919    -0.00002431924343     0.46745547903657     0.04393146133192     0.48861305963151
                 101     0.00061070846958    -0.00026017961961     0.00026370480070     0.48703026129278     0.01908334243402     0.49388639627320
                 102    -0.00310053771175    -0.00015951488543    -0.00008670680614     0.48571609577964     0.02171228803324     0.49257161618712
                 103     0.00030855541341    -0.00029120155581    -0.00027044687591     0.48404537513597     0.02173391381988     0.49422071104415
                 104    -0.00251144939670     0.00038157852795     0.00003815373486     0.48376966560701     0.02366050639449     0.49256982799850
                 105     0.00049602530201     0.00013177972673    -0.00012138953844     0.49382252417633     0.00878226926852     0.49739520655515
                 106    -0.00412324302496     0.00004162185588    -0.00004164690487     0.49379592526638     0.01254105489187     0.49366301984175
                 107     0.00083938177814    -0.00001391389471    -0.00013179031237     0.48863094571911     0.01561427776510     0.49575477651579
                 108    -0.00321545337336     0.00034004067592     0.00037122181080     0.48874232758345     0.01859467209435     0.49266300032220
                 109     0.00028441055047     0.00005896731863     0.00009709699483     0.49606703178859     0.00559773601789     0.49833523219352
                 110    -0.00401131772959    -0.00009360338460    -0.00002773011626     0.49579789728212     0.00989149991675     0.49431060280112
                 111     0.00027049521432    -0.00000696270604    -0.00000000000000     0.49444444444444     0.00780274656679     0.49775280898876
                 112    -0.00438767503607     0.00004856052723     0.00004160887656     0.49481969486824     0.01175939783792     0.49342090729385
                 113     0.00027068295391     0.00029146426654    -0.00016657412549     0.49110910605219     0.01207662409772     0.49681426985008
                 114    -0.00452796104720     0.00045790838520    -0.00001040654919     0.49124809213265     0.01632553245760     0.49242637540975
                 115     0.00011098706942     0.00033991454949     0.00003815349712     0.49450957125315     0.00820963035667     0.49728079839017
                 116    -0.00424413715403     0.00004162186310     0.00006935822824     0.49434734407926     0.01226188456062     0.49339077136012
                 117     0.00015607225183    -0.00011099428616    -0.00007630122005     0.49134994385568     0.01189295758063     0.49675709856369
                 118    -0.00411930835788     0.00000000144285     0.00005200965285     0.49143202248266     0.01566232776352     0.49290564975382
                 119     0.00012497179287     0.00028785845362    -0.00020806814912     0.49030887500184     0.01330541271629     0.49638571228187
                 120    -0.00414388496081    -0.00006940491430    -0.00007980400734     0.49072491635146     0.01693733710989     0.49233774653864
                 121     0.00024976247921     0.00028097371059     0.00019078216663     0.48839670438092     0.01591853659619     0.49568475902289
                 122    -0.00317421894821     0.00016299600315    -0.00022184138843     0.48850975312335     0.01887364434047     0.49261660253618
                 123     0.00044035604208    -0.00018722359644     0.00013869577405     0.49247578345514     0.01064138434570     0.49688283219915
                 124    -0.00412118024241     0.00015264069982    -0.00023242737238     0.49163607622395     0.01501752075974     0.49334640301631
                 125     0.00007285089849     0.00023589477805     0.00004162908485     0.49585790605703     0.00577603552349     0.49836605841948
                 126    -0.00500409860324    -0.00017350098605     0.00011451176348     0.49586716635436     0.01091360298134     0.49321923066430
                 127     0.00018727890685    -0.00001733053187     0.00003121315114     0.49661857529306     0.00500450856628     0.49837691614067
                 128    -0.00478119332577     0.00004507868959    -0.00006243063263     0.49650388457270     0.00949121751960     0.49400489790770
                 129     0.00033287101248    -0.00005547345351     0.00023925104022     0.49645284327323     0.00504507628294     0.49850208044383
                 130    -0.00513331194141    -0.00019422695269    -0.00007282563462     0.49670203911777     0.00945777758724     0.49384018329499
                 131     0.00011446409990    -0.00013875447397     0.00011446409990     0.49228928199792     0.01050988553590     0.49720083246618
                 132    -0.00386103694062     0.00015960416414     0.00017699729298     0.49228500034705     0.01420668201568     0.49350831763727
                 133     0.00011452766017     0.00002082321094     0.00029152495315     0.49804261817172     0.00307142361352     0.49888595821476
                 134    -0.00491574140669    -0.00010048893742     0.00009356806210     0.49768159135015     0.00811440312153     0.49420400552832
                 135     0.00019769700333     0.00025310841613    -0.00007283573807     0.49874098224195     0.00197697003330     0.49928204772475
                 136    -0.00513724218702    -0.00014911891961     0.00020805881129     0.49858520008322     0.00707914463543     0.49433565528134
                 137     0.00000000000000    -0.00008325816971     0.00000000000000     0.49997918545757     0.00002081454243     0.50000000000000
                 138    -0.00573787552904     0.00010407271213     0.00000000000000     0.49997918545757     0.00575869007146     0.49426212447096
                 139     0.00000000000000     0.00003467646855     0.00000000000000     0.50000000000000     0.00000000000000     0.50000000000000
                 140    -0.00572439633639     0.00003469331113     0.00000000000000     0.50000000000000     0.00579378295865     0.49420621704135
                 141     0.00000000000000     0.00024266796090     0.00000000000000     0.50000000000000     0.00000000000000     0.50000000000000
                 142    -0.00572479356047     0.00006939143710     0.00000000000000     0.50000000000000     0.00579418499757     0.49420581500243
                 143     0.00000000000000    -0.00006936736959     0.00000000000000     0.50000000000000     0.00000000000000     0.50000000000000
                 144    -0.00575908964752     0.00013877324452     0.00000000000000     0.50000000000000     0.00582847626978     0.49417152373022
                 145     0.00000000000000    -0.00000000000000     0.00000000000000     0.50000000000000     0.00000000000000     0.50000000000000
                 146    -0.00582483877678     0.00003467165939     0.00000000000000     0.50000000000000     0.00589418209556     0.49410581790444
                 147     0.00000000000000    -0.00013873473918     0.00000000000000     0.50000000000000     0.00000000000000     0.50000000000000
                 148    -0.00575669302261    -0.00006935774726     0.00000000000000     0.50000000000000     0.00582605076987     0.49417394923013
                 149     0.00000000000000     0.00020818875781     0.00000000000000     0.50000000000000     0.00000000000000     0.50000000000000
                 150    -0.00568694084194     0.00010402940565     0.00000000000000     0.50000000000000     0.00575629377904     0.49424370622096
                 151     0.00000000000000    -0.00010408715564     0.00000000000000     0.50000000000000     0.00000000000000     0.50000000000000
                 152    -0.00579137189624     0.00017339436815     0.00000000000000     0.50000000000000     0.00579137189624     0.49420862810376
                 153     0.00002774309890     0.00000693577473    -0.00004855042308     0.49995144957692     0.00009016507144     0.49995838535164
                 154    -0.00573588569843    -0.00002774309890    -0.00002080732418     0.49995144957692     0.00585379386878     0.49419475655431
                 155    -0.00000693769946    -0.00011103400416    -0.00002081309838     0.49982655751353     0.00022200638268     0.49995143610379
                 156    -0.00567416910184     0.00000694588081    -0.00002775272324     0.49983348366058     0.00596555729581     0.49420095904360
                 157     0.00000000000000     0.00003466685156     0.00000000000000     0.50000000000000     0.00000000000000     0.50000000000000
                 158    -0.00572638300826    -0.00006941070313     0.00000000000000     0.50000000000000     0.00579579371139     0.49420420628861
                 159     0.00000000000000    -0.00006936736959     0.00000000000000     0.50000000000000     0.00000000000000     0.50000000000000
                 160    -0.00572161731049     0.00000000000000     0.00000000000000     0.50000000000000     0.00579097024759     0.49420902975241
                 161     0.00000000000000    -0.00000000000000     0.00000000000000     0.50000000000000     0.00000000000000     0.50000000000000
                 162    -0.00579137189624     0.00010403662089     0.00000000000000     0.50000000000000     0.00586072964350     0.49413927035650
                 163     0.00000000000000     0.00003466685156     0.00000000000000     0.50000000000000     0.00000000000000     0.50000000000000
                 164    -0.00579498924283     0.00000000000000     0.00000000000000     0.50000000000000     0.00586439031161     0.49413560968839
                 165     0.00000000000000    -0.00017347859274     0.00000000000000     0.50000000000000     0.00000000000000     0.50000000000000
                 166    -0.00572122052705     0.00003467406380     0.00000000000000     0.50000000000000     0.00579056865465     0.49420943134535
                 167     0.00000000000000    -0.00006935774726     0.00000000000000     0.50000000000000     0.00000000000000     0.50000000000000
                 168    -0.00579097024759     0.00013870587419     0.00000000000000     0.50000000000000     0.00586032318469     0.49413967681531
                 169     0.00000000000000     0.00003468609088     0.00000000000000     0.50000000000000     0.00000000000000     0.50000000000000
                 170    -0.00576068850639     0.00006940588562     0.00000000000000     0.50000000000000     0.00583009439200     0.49416990560800
                 171     0.00000000000000    -0.00013875398918     0.00000000000000     0.50000000000000     0.00000000000000     0.50000000000000
                 172    -0.00575669302261     0.00006935774726     0.00000000000000     0.50000000000000     0.00582605076987     0.49417394923013
                 173     0.00000000000000     0.00003468127905     0.00000000000000     0.50000000000000     0.00000000000000     0.50000000000000
                 174    -0.00579016711740     0.00006934331877     0.00000000000000     0.50000000000000     0.00585951043617     0.49414048956383
                 175     0.00000000000000    -0.00003468609088     0.00000000000000     0.50000000000000     0.00000000000000     0.50000000000000
                 176    -0.00579579371139     0.00006941070313     0.00000000000000     0.50000000000000     0.00586520441452     0.49413479558548
                 177     0.00000000000000    -0.00010405827263     0.00000000000000     0.50000000000000     0.00000000000000     0.50000000000000
                 178    -0.00575669302261     0.00013871549452     0.00000000000000     0.50000000000000     0.00582605076987     0.49417394923013
                 179     0.00000000000000     0.00010411605470     0.00000000000000     0.50000000000000     0.00000000000000     0.50000000000000
                 180    -0.00578615480563    -0.00006929526713     0.00000000000000     0.50000000000000     0.00585545007276     0.49414454992724
                 181     0.00000000000000    -0.00006937699459     0.00000000000000     0.50000000000000     0.00000000000000     0.50000000000000
                 182    -0.00569128262077    -0.00006940588562     0.00000000000000     0.50000000000000     0.00576068850639     0.49423931149361
                 183     0.00000000000000     0.00013877324452     0.00000000000000     0.50000000000000     0.00000000000000     0.50000000000000
                 184    -0.00572082379863    -0.00006934331877     0.00000000000000     0.50000000000000     0.00579016711740     0.49420983288260
                 185     0.00000000000000    -0.00010404383714     0.00000000000000     0.50000000000000     0.00000000000000     0.50000000000000
                 186    -0.00572122052705    -0.00003467406380     0.00000000000000     0.50000000000000     0.00579056865465     0.49420943134535
                 187     0.00000000000000    -0.00006940588562     0.00000000000000     0.50000000000000     0.00000000000000     0.50000000000000
                 188    -0.00572320499480    -0.00006937218176     0.00000000000000     0.50000000000000     0.00579257717655     0.49420742282345
                 189     0.00000000000000     0.00003467646855     0.00000000000000     0.50000000000000     0.00000000000000     0.50000000000000
                 190    -0.00579297904815     0.00003468849729     0.00000000000000     0.50000000000000     0.00586235604274     0.49413764395726
                 191     0.00000000000000     0.00010398613518     0.00000000000000     0.50000000000000     0.00000000000000     0.50000000000000
                 192    -0.00575908964752     0.00020815986678     0.00000000000000     0.50000000000000     0.00582847626978     0.49417152373022
                 193     0.00000000000000    -0.00003469090404     0.00000000000000     0.50000000000000     0.00000000000000     0.50000000000000
                 194    -0.00575749167592    -0.00013873473918     0.00000000000000     0.50000000000000     0.00582685904550     0.49417314095450
                 195     0.00000000000000     0.00010404383714     0.00000000000000     0.50000000000000     0.00000000000000     0.50000000000000
                 196    -0.00569009784193     0.00010408715564     0.00000000000000     0.50000000000000     0.00575948927902     0.49424051072098
                 197     0.00000000000000    -0.00017343045439     0.00000000000000     0.50000000000000     0.00000000000000     0.50000000000000
                 198    -0.00579016711740     0.00006934331877     0.00000000000000     0.50000000000000     0.00585951043617     0.49414048956383
                 199     0.00000000000000     0.00027746947836     0.00000000000000     0.50000000000000     0.00000000000000     0.50000000000000
                 200    -0.00572439633639     0.00003469331113     0.00000000000000     0.50000000000000     0.00579378295865     0.49420621704135
                 201     0.00006935293710    -0.00024273527984     0.00027741174839     0.49916776475484     0.00138705874194     0.49944517650323
                 202    -0.00503122831367    -0.00020818875781    -0.00010409437890     0.49920194309507     0.00617626648161     0.49462179042332
                 203     0.00020808767427     0.00006936255809    -0.00010404383714     0.49927169314004     0.00100575709232     0.49972254976764
                 204    -0.00547926203357     0.00003467887363     0.00031210986267     0.49934110140103     0.00655430711610     0.49410459148287
                 205     0.00000000000000    -0.00010402940565     0.00000000000000     0.50000000000000     0.00000000000000     0.50000000000000
                 206    -0.00575869007146    -0.00003469090404     0.00000000000000     0.50000000000000     0.00582807187955     0.49417192812045
                 207     0.00000000000000     0.00010405827263     0.00000000000000     0.50000000000000     0.00000000000000     0.50000000000000
                 208    -0.00565540212338    -0.00020817431129     0.00000000000000     0.50000000000000     0.00572479356047     0.49427520643953
                 209     0.00000000000000    -0.00006937699459     0.00000000000000     0.50000000000000     0.00000000000000     0.50000000000000
                 210    -0.00572161731049     0.00000000000000     0.00000000000000     0.50000000000000     0.00579097024759     0.49420902975241
                 211     0.00000000000000     0.00003469571855     0.00000000000000     0.50000000000000     0.00000000000000     0.50000000000000
                 212    -0.00582483877678    -0.00003467165939     0.00000000000000     0.50000000000000     0.00582483877678     0.49417516122322
                 213     0.00000000000000     0.00024270161570     0.00000000000000     0.50000000000000     0.00000000000000     0.50000000000000
                 214    -0.00569207274747     0.00006941552131     0.00000000000000     0.50000000000000     0.00576148826878     0.49423851173122
                 215     0.00000000000000    -0.00013871549452     0.00000000000000     0.50000000000000     0.00000000000000     0.50000000000000
                 216    -0.00579257717655    -0.00006937218176     0.00000000000000     0.50000000000000     0.00586194935831     0.49413805064169
                 217     0.00000000000000     0.00010397171969     0.00000000000000     0.50000000000000     0.00000000000000     0.50000000000000
                 218    -0.00579378295865    -0.00010407993339     0.00000000000000     0.50000000000000     0.00586316958090     0.49413683041910
                 219     0.00000000000000     0.00003471498993     0.00000000000000     0.50000000000000     0.00000000000000     0.50000000000000
                 220    -0.00575589459085     0.00013869625520     0.00000000000000     0.50000000000000     0.00582524271845     0.49417475728155
                 221     0.00000000000000    -0.00000000000000     0.00000000000000     0.50000000000000     0.00000000000000     0.50000000000000
                 222    -0.00575789108567     0.00003468609088     0.00000000000000     0.50000000000000     0.00582726326743     0.49417273673257
                 223     0.00000000000000     0.00006939625260     0.00000000000000     0.50000000000000     0.00000000000000     0.50000000000000
                 224    -0.00575310182297    -0.00003465723990     0.00000000000000     0.50000000000000     0.00582241630277     0.49417758369723
                 225     0.00000000000000     0.00010411605470     0.00000000000000     0.50000000000000     0.00000000000000     0.50000000000000
                 226    -0.00572280799112     0.00003468368479     0.00000000000000     0.50000000000000     0.00579217536071     0.49420782463929
                 227     0.00000000000000     0.00010404383714     0.00000000000000     0.50000000000000     0.00000000000000     0.50000000000000
                 228    -0.00572280799112    -0.00010405105438     0.00000000000000     0.50000000000000     0.00579217536071     0.49420782463929
                 229     0.00000000000000    -0.00003467646855     0.00000000000000     0.50000000000000     0.00000000000000     0.50000000000000
                 230    -0.00575669302261     0.00006935774726     0.00000000000000     0.50000000000000     0.00582605076987     0.49417394923013
                 231     0.00000000000000     0.00003470053439     0.00000000000000     0.50000000000000     0.00000000000000     0.50000000000000
                 232    -0.00579338097551    -0.00006938180809     0.00000000000000     0.50000000000000     0.00586276278360     0.49413723721640
                 233     0.00000000000000    -0.00000000000000     0.00000000000000     0.50000000000000     0.00000000000000     0.50000000000000
                 234    -0.00575908964752     0.00006938662226     0.00000000000000     0.50000000000000     0.00582847626978     0.49417152373022
                 235     0.00000000000000    -0.00000000000000     0.00000000000000     0.50000000000000     0.00000000000000     0.50000000000000
                 236    -0.00568694084194    -0.00003467646855     0.00000000000000     0.50000000000000     0.00575629377904     0.49424370622096
                 237     0.00000000000000    -0.00024293746096     0.00000000000000     0.50000000000000     0.00000000000000     0.50000000000000
                 238    -0.00572241104252    -0.00013872511618     0.00000000000000     0.50000000000000     0.00579177360061     0.49420822639939
                 239     0.00000000000000    -0.00003467165939     0.00000000000000     0.50000000000000     0.00000000000000     0.50000000000000
                 240    -0.00568970302526     0.00000000000000     0.00000000000000     0.50000000000000     0.00575908964752     0.49424091035248
                 241     0.00000000000000    -0.00024266796090     0.00000000000000     0.50000000000000     0.00000000000000     0.50000000000000
                 242    -0.00572360205356    -0.00024281948106     0.00000000000000     0.50000000000000     0.00579297904815     0.49420702095185
                 243     0.00000000000000    -0.00003467646855     0.00000000000000     0.50000000000000     0.00000000000000     0.50000000000000
                 244    -0.00579700083310     0.00010413773952     0.00000000000000     0.50000000000000     0.00586642599278     0.49413357400722
                 245     0.00000000000000    -0.00010402940565     0.00000000000000     0.50000000000000     0.00000000000000     0.50000000000000
                 246    -0.00579217536071     0.00003468368479     0.00000000000000     0.50000000000000     0.00586154273030     0.49413845726970
                 247     0.00000000000000    -0.00027750797835     0.00000000000000     0.50000000000000     0.00000000000000     0.50000000000000
                 248    -0.00572122052705    -0.00010402219140     0.00000000000000     0.50000000000000     0.00579056865465     0.49420943134535
                 249     0.00000000000000     0.00003467165939     0.00000000000000     0.50000000000000     0.00000000000000     0.50000000000000
                 250    -0.00579297904815    -0.00003468849729     0.00000000000000     0.50000000000000     0.00579297904815     0.49420702095185
                 251     0.00000000000000    -0.00017345452022     0.00000000000000     0.50000000000000     0.00000000000000     0.50000000000000
                 252    -0.00572519083969    -0.00003469812630     0.00000000000000     0.50000000000000     0.00579458709230     0.49420541290770
                 253     0.00000000000000     0.00010410160316     0.00000000000000     0.50000000000000     0.00000000000000     0.50000000000000
                 254    -0.00578816026619     0.00003465964231     0.00000000000000     0.50000000000000     0.00585747955081     0.49414252044919
                 255     0.00000000000000    -0.00003468127905     0.00000000000000     0.50000000000000     0.00000000000000     0.50000000000000
                 256    -0.00575709232156    -0.00010404383714     0.00000000000000     0.50000000000000     0.00582645487966     0.49417354512034
                 257     0.00000000000000     0.00006938662226     0.00000000000000     0.50000000000000     0.00000000000000     0.50000000000000
                 258    -0.00582888071612     0.00017347859274     0.00000000000000     0.50000000000000     0.00589827215322     0.49410172784678
                 259     0.00000000000000     0.00003466685156     0.00000000000000     0.50000000000000     0.00000000000000     0.50000000000000
                 260    -0.00575908964752     0.00006938662226     0.00000000000000     0.50000000000000     0.00582847626978     0.49417152373022
                 261     0.00000000000000    -0.00006937699459     0.00000000000000     0.50000000000000     0.00000000000000     0.50000000000000
                 262    -0.00571963394343     0.00003466444814     0.00000000000000     0.50000000000000     0.00578896283971     0.49421103716029
                 263     0.00000000000000     0.00003469571855     0.00000000000000     0.50000000000000     0.00000000000000     0.50000000000000
                 264    -0.00572558817406     0.00013880213755     0.00000000000000     0.50000000000000     0.00579498924283     0.49420501075717
                 265     0.00000000000000     0.00006935774726     0.00000000000000     0.50000000000000     0.00000000000000     0.50000000000000
                 266    -0.00575749167592    -0.00013873473918     0.00000000000000     0.50000000000000     0.00582685904550     0.49417314095450
                 267     0.00000000000000    -0.00003468609088     0.00000000000000     0.50000000000000     0.00000000000000     0.50000000000000
                 268    -0.00568536365527     0.00010400055467     0.00000000000000     0.50000000000000     0.00575469735839     0.49424530264161
                 269     0.00000000000000    -0.00027754648904     0.00000000000000     0.50000000000000     0.00000000000000     0.50000000000000
                 270    -0.00569128262077    -0.00020821765686     0.00000000000000     0.50000000000000     0.00576068850639     0.49423931149361
                 271     0.00000000000000    -0.00003467165939     0.00000000000000     0.50000000000000     0.00000000000000     0.50000000000000
                 272    -0.00579257717655     0.00006937218176     0.00000000000000     0.50000000000000     0.00586194935831     0.49413805064169
                 273     0.00000000000000    -0.00006936736959     0.00000000000000     0.50000000000000     0.00000000000000     0.50000000000000
                 274    -0.00575549545801     0.00010401497816     0.00000000000000     0.50000000000000     0.00582483877678     0.49417516122322
                 275     0.00000000000000    -0.00003469571855     0.00000000000000     0.50000000000000     0.00000000000000     0.50000000000000
                 276    -0.00579378295865    -0.00003469331113     0.00000000000000     0.50000000000000     0.00586316958090     0.49413683041910
                 277     0.00000000000000    -0.00013877324452     0.00000000000000     0.50000000000000     0.00000000000000     0.50000000000000
                 278    -0.00575589459085    -0.00006934812760     0.00000000000000     0.50000000000000     0.00582524271845     0.49417475728155
                 279     0.00000000000000    -0.00010402940565     0.00000000000000     0.50000000000000     0.00000000000000     0.50000000000000
                 280    -0.00579137189624    -0.00003467887363     0.00000000000000     0.50000000000000     0.00586072964350     0.49413927035650
                 281     0.00000000000000     0.00013873473918     0.00000000000000     0.50000000000000     0.00000000000000     0.50000000000000
                 282    -0.00572598556358     0.00003470294281     0.00000000000000     0.50000000000000     0.00579539144919     0.49420460855081
                 283     0.00000000000000    -0.00020801553183     0.00000000000000     0.50000000000000     0.00000000000000     0.50000000000000
                 284    -0.00569049271339     0.00006939625260     0.00000000000000     0.50000000000000     0.00575988896600     0.49424011103400
                 285     0.00000000000000     0.00020807324178     0.00000000000000     0.50000000000000     0.00000000000000     0.50000000000000
                 286    -0.00582605076987     0.00020807324178     0.00000000000000     0.50000000000000     0.00589540851713     0.49410459148287
                 287     0.00000000000000    -0.00010405827263     0.00000000000000     0.50000000000000     0.00000000000000     0.50000000000000
                 288    -0.00579498924283    -0.00006940106878     0.00000000000000     0.50000000000000     0.00586439031161     0.49413560968839
                 289     0.00000000000000    -0.00000000000000     0.00000000000000     0.50000000000000     0.00000000000000     0.50000000000000
                 290    -0.00578976563583     0.00003466925530     0.00000000000000     0.50000000000000     0.00585910414644     0.49414089585356
                 291     0.00000000000000    -0.00010404383714     0.00000000000000     0.50000000000000     0.00000000000000     0.50000000000000
                 292    -0.00579097024759     0.00000000000000     0.00000000000000     0.50000000000000     0.00586032318469     0.49413967681531
                 293     0.00000000000000     0.00020821765686     0.00000000000000     0.50000000000000     0.00000000000000     0.50000000000000
                 294    -0.00575709232156    -0.00003468127905     0.00000000000000     0.50000000000000     0.00582645487966     0.49417354512034
                 295     0.00000000000000    -0.00006939625260     0.00000000000000     0.50000000000000     0.00000000000000     0.50000000000000
                 296    -0.00578976563583    -0.00003466925530     0.00000000000000     0.50000000000000     0.00585910414644     0.49414089585356
                 297     0.00000000000000    -0.00024266796090     0.00000000000000     0.50000000000000     0.00000000000000     0.50000000000000
                 298    -0.00568930826337     0.00003469090404     0.00000000000000     0.50000000000000     0.00575869007146     0.49424130992854
                 299     0.00000000000000     0.00027731558514     0.00000000000000     0.50000000000000     0.00000000000000     0.50000000000000
                 300    -0.00586194935831     0.00006937218176     0.00000000000000     0.50000000000000     0.00586194935831     0.49413805064169
 l=          30
                   1    -0.00073535789043     0.00016302437687    -0.00056887114263     0.41168842786504     0.10858920541191     0.47972236672305
                   2     0.00008672196456     0.00079111223813     0.00066270917995     0.42650115949103     0.10080194490559     0.47269689560338
                   3    -0.00101626254554     0.00033647506776    -0.00149837155611     0.41046247235172     0.11589506262592     0.47364246502236
                   4     0.00067618464598    -0.00019074653719    -0.00101941485635     0.41264958500911     0.11632507018600     0.47102534480489
                   5     0.00070729680700     0.00148062894912     0.00006931182040     0.40519477241850     0.12286332001468     0.47194190756683
                   6     0.00017692192019    -0.00101279994134     0.00160939229016     0.40571692897137     0.12146633926113     0.47281673176751
                   7     0.00129745897395     0.00064863764231     0.00022549695241     0.40749097770990     0.12302724459848     0.46948177769162
                   8    -0.00162069350394     0.00097859562234     0.00002068476108     0.40820811369747     0.12111118267349     0.47068070362904
                   9    -0.00091921177208     0.00032601484870     0.00029480506444     0.40245908591788     0.12560047983074     0.47194043425138
                  10    -0.00050302582585    -0.00138071292035    -0.00206753506042     0.40172013043947     0.12626519115148     0.47201467840905
                  11     0.00018023830974     0.00119567838358     0.00016629637322     0.42165118699757     0.10474462205340     0.47360419094903
                  12     0.00009358962797     0.00015260580725    -0.00049944434082     0.41652526891110     0.10755014873972     0.47592458234917
                  13    -0.00032616547217     0.00161337862975    -0.00243911095132     0.42952892067282     0.09422851889748     0.47624256042970
                  14     0.00056220959306    -0.00026723194105    -0.00128757337740     0.42999594092282     0.09330521147032     0.47669884760686
                  15     0.00091253761167     0.00073210639164    -0.00042676215779     0.41827945874583     0.10542170225506     0.47629883899912
                  16     0.00097099187155     0.00050976573590     0.00021844996919     0.41815670596643     0.10640218582905     0.47544110820452
                  17    -0.00024612287792    -0.00031549119180     0.00085276416963     0.43333243276694     0.08831578018558     0.47835178704748
                  18     0.00048889082195     0.00012832265120     0.00079751622301     0.43438161514506     0.08812110473074     0.47749728012420
                  19     0.00113127069798     0.00083302377737     0.00021169783318     0.40008402875392     0.12790609509642     0.47200987614966
                  20    -0.00011448069504     0.00070783601980     0.00015264261346     0.40467029372055     0.12543732761556     0.46989237866389
                  21     0.00021145575254     0.00052370583235    -0.00119997444488     0.40235514985276     0.12616223222058     0.47148261792666
                  22     0.00060358563734     0.00137708670331    -0.00115509666169     0.40367121642376     0.12553032246128     0.47079846111496
                  23    -0.00064867706164    -0.00186610257504     0.00113767059537     0.40625908522146     0.12403862041272     0.46970229436582
                  24    -0.00038124261248     0.00008656379965    -0.00147654164755     0.40519604890666     0.12400922678565     0.47079472430769
                  25     0.00091948134438    -0.00099581721389     0.00009023824134     0.40971665768017     0.11879440845857     0.47148893386126
                  26    -0.00001388261944     0.00261563907097     0.00070077046625     0.41047898144254     0.11896589131535     0.47055512724211
                  27     0.00012125122054     0.00166149240496    -0.00069723348682     0.41393050216734     0.11417436345901     0.47189513437365
                  28     0.00058931706326    -0.00102640066586     0.00017316650654     0.41078411081855     0.11693831112633     0.47227757805512
                  29     0.00107116534243     0.00010049397340    -0.00017685718174     0.41479543529623     0.11197680768696     0.47322775701682
                  30     0.00065906773963    -0.00015613698411     0.00020808694734     0.41540815464756     0.11099692450844     0.47359492084401
                  31     0.00054118653996    -0.00007283501444     0.00105463070220     0.39709739641479     0.13288314109511     0.47001946249011
                  32     0.00110324826384     0.00005205344931     0.00021852741979     0.39981898305051     0.13070543734655     0.46947557960294
                  33     0.00043707049559    -0.00091224082467     0.00030175382901     0.40058629201530     0.12888990889917     0.47052379908553
                  34    -0.00113451293304     0.00162373002653    -0.00069393146421     0.40147022908680     0.12692648542551     0.47160328548769
                  35    -0.00038496436678    -0.00140783315292    -0.00045065653836     0.39737394063425     0.13293610204458     0.46968995732116
                  36     0.00052354303199     0.00057551999557    -0.00150128935049     0.39555844120613     0.13419833251065     0.47024322628323
                  37    -0.00012823694130    -0.00020468644997    -0.00086045527551     0.40223156404691     0.12721134413212     0.47055709182097
                  38    -0.00043713572174    -0.00119353609136     0.00016653993319     0.40364566983365     0.12615719754555     0.47019713262080
                  39     0.00106836483883    -0.00389877639006     0.00065553536360     0.39400335056049     0.13790078818103     0.46809586125848
                  40     0.00020808984185     0.00166810795397    -0.00065547305426     0.39387324313381     0.13660427671430     0.46952248015188
                  41     0.00023225683552    -0.00144919147509     0.00117531037659     0.40858528578406     0.11978535318726     0.47162936102868
                  42     0.00046828653252     0.00090881937811     0.00094697431768     0.40627774070218     0.12157287799827     0.47214938129955
                  43    -0.00061062033827     0.00057934363488    -0.00003118233140     0.40248171344725     0.12655622839133     0.47096205816142
                  44    -0.00067659565917    -0.00251549959111     0.00041284583038     0.40397813389301     0.12481146375804     0.47121040234896
                  45     0.00096068180833    -0.00022535014033     0.00118961507191     0.38906222907421     0.14206304794369     0.46887472298210
                  46    -0.00041614452590    -0.00056181939104     0.00047853239037     0.39193581041281     0.13962416040457     0.46844002918262
                  47    -0.00029833288244     0.00058262938296     0.00146703210214     0.39219586857848     0.13967949622140     0.46812463520012
                  48     0.00064518852582     0.00084281818846     0.00054471143563     0.39411652865109     0.13788614003666     0.46799733131225
                  49     0.00060353076446     0.00086718403677    -0.00058964718442     0.38321410130672     0.15053682291586     0.46624907577742
                  50     0.00029483875140    -0.00057582231605     0.00065217816897     0.38560468397299     0.14944795711384     0.46494735891317
                  51    -0.00036419529716    -0.00071461484891    -0.00090881552407     0.37335872665288     0.16328983693119     0.46335143641594
                  52    -0.00032246544868     0.00252447051926     0.00053399623687     0.37247293482327     0.16303949346519     0.46448757171154
                  53    -0.00101311187051    -0.00314331519041    -0.00029490131957     0.39851488860010     0.13315437452202     0.46833073687788
                  54    -0.00040576809272     0.00211206902135     0.00080816209856     0.39817976463519     0.13366799982995     0.46815223553486
                  55    -0.00059987356075    -0.00021507710088     0.00206330209594     0.40069993691321     0.12974373275165     0.46955633033515
                  56    -0.00040898234110    -0.00108474230519     0.00023216843155     0.40194572427207     0.12898196108046     0.46907231464747
                  57     0.00019087558070     0.00126666634918    -0.00125977632784     0.37629358416698     0.16006987146818     0.46363654436484
                  58     0.00070416061439    -0.00078049672555     0.00143263831215     0.37887900133738     0.15876121481221     0.46235978385041
                  59     0.00131510623255    -0.00049278517784    -0.00076342743702     0.37957475150600     0.15705375584185     0.46337149265215
                  60    -0.00016990245469    -0.00003126195475    -0.00151223707910     0.37758389483072     0.15837167728205     0.46404442788723
                  61     0.00076630064398    -0.00006931808805    -0.00022892189052     0.39167448621470     0.14065394445497     0.46767156933033
                  62    -0.00020809874966    -0.00132152132543     0.00058618436579     0.38542342048535     0.14656543690309     0.46801114261155
                  63     0.00129064948008     0.00113449609217     0.00134265837061     0.40081178888482     0.13044129006000     0.46874692105517
                  64     0.00081868081091     0.00040234951660     0.00052730366752     0.39931699875400     0.13118210293505     0.46950089831095
                  65    -0.00033302421576    -0.00131096708295     0.00154684569383     0.41023170235043     0.11796394017616     0.47180435747341
                  66    -0.00067621351997     0.00028790586721    -0.00039185659985     0.40484314749786     0.12299609825762     0.47216075424452
                  67     0.00007287132734     0.00051669360061     0.00058251995350     0.43081851989131     0.09336656769199     0.47581491241670
                  68    -0.00015945089607    -0.00107132110248    -0.00139399244132     0.42767682353866     0.09411933022827     0.47820384623307
                  69    -0.00053088254447    -0.00014226038946     0.00140175736482     0.43312662103163     0.08864520845507     0.47822817051330
                  70     0.00005200626216     0.00074951108090    -0.00103750216366     0.43245782670329     0.08894114427877     0.47860102901794
                  71     0.00015958753452     0.00044043733074     0.00041274932486     0.44268836801675     0.07754494197764     0.47976669000561
                  72    -0.00088072818768     0.00002086023408     0.00029814476084     0.44068004304383     0.07769228949927     0.48162766745689
                  73     0.00141160796690     0.00061053533023     0.00066245285947     0.44484285277845     0.07314047255113     0.48201667467042
                  74    -0.00039890372454     0.00070044262199     0.00001046283121     0.44636180567475     0.07123793881776     0.48240025550749
                  75     0.00089841021519     0.00110648294941     0.00100595828066     0.43246449852570     0.08865643457055     0.47887906690375
                  76     0.00008688335542     0.00040612611234     0.00054496727233     0.43315513125625     0.08841592770799     0.47842894103577
                  77     0.00104352683446     0.00041256318629     0.00123753884867     0.43737953301388     0.08293236090279     0.47968810608334
                  78    -0.00005889707666    -0.00007283982674     0.00027047741758     0.43901114907346     0.08208491279252     0.47890393813401
                  79     0.00055500416947    -0.00083243827224    -0.00004501659940     0.41790341760807     0.10682929227342     0.47526729011851
                  80    -0.00144188921754    -0.00010052258289     0.00014897591688     0.42113341392643     0.10403118065135     0.47483540542222
                  81    -0.00068016611764    -0.00027415180184    -0.00038170949214     0.42261030080604     0.10322789876895     0.47416180042501
                  82    -0.00146064641895    -0.00075980253248    -0.00031917220157     0.42049939708022     0.10506056083292     0.47444004208686
                  83     0.00035706908118     0.00057567292786     0.00013169106313     0.43168731345056     0.09272842530742     0.47558426124202
                  84     0.00063833793117     0.00021503570091    -0.00062099658796     0.42801788123213     0.09378946655213     0.47819265221574
                  85    -0.00080157699566    -0.00180085873530    -0.00079808500994     0.44637141975992     0.07322656007786     0.48040202016222
                  86    -0.00072090925298     0.00075240188408     0.00040561104503     0.44222295268915     0.07557868265522     0.48219836465563
                  87     0.00121753811788    -0.00012139386179    -0.00074588932864     0.47287744331353     0.03922522556739     0.48789733111908
                  88    -0.00121737233636    -0.00018729430888     0.00001389392472     0.47030491240759     0.04062349342323     0.48907159416918
                  89     0.00016308167573     0.00011103328324    -0.00041637077618     0.47732166182520     0.03148806199483     0.49119027617997
                  90    -0.00062078407108    -0.00086357250920    -0.00044739595781     0.47799455738010     0.03235788549739     0.48964755712251
                  91     0.00060327052729    -0.00076631245589     0.00031900331690     0.46336994786225     0.04995196096576     0.48667809117199
                  92    -0.00074907450049    -0.00040920013041     0.00100223485008     0.46464469366329     0.04851949515987     0.48683581117684
                  93     0.00030872233170     0.00132519498960     0.00081172074748     0.45056242212811     0.06583468858348     0.48360288928841
                  94    -0.00120746834061    -0.00188748468796     0.00032955155501     0.45254516744874     0.06397051025125     0.48348432230001
                  95     0.00142233189704     0.00120028988864    -0.00091237415632     0.44472646939061     0.07409008557819     0.48118344503120
                  96    -0.00100924687197    -0.00126938557544     0.00000001467544     0.44671383208517     0.07260776285123     0.48067840506360
                  97     0.00141843451794    -0.00027050604579     0.00056179992249     0.44884774624490     0.06994505393755     0.48120719981755
                  98    -0.00083579743132     0.00090507820398     0.00168537740781     0.44665774094114     0.07197496171246     0.48136729734640
                  99    -0.00019428182003     0.00037816936962    -0.00046148843152     0.45431275463738     0.06340842877191     0.48227881659071
                 100    -0.00047857711709    -0.00150161206760     0.00022195369127     0.45159489635089     0.06527301847667     0.48313208517243
                 101     0.00064527417956     0.00037464924828    -0.00002426798595     0.47359719997914     0.03814896148208     0.48825383853878
                 102    -0.00143601743678    -0.00135633807343     0.00113436561051     0.47152470122316     0.03816705889496     0.49030823988188
                 103     0.00030168745616     0.00002082176108     0.00034676205901     0.47301328103518     0.03665847253501     0.49032824642980
                 104    -0.00130039793144     0.00150856860356    -0.00018724355525     0.47255602902985     0.03750389498176     0.48994007598839
                 105     0.00113753609890     0.00047858048417    -0.00026356834143     0.47586931509930     0.03338344260036     0.49074724230034
                 106    -0.00080843937599    -0.00065577460274     0.00047188464591     0.47598952815316     0.03352098171211     0.49048949013474
                 107     0.00162978591476     0.00080446933411     0.00014546632706     0.47042807442884     0.04056428192673     0.48900764364443
                 108    -0.00055856258407     0.00083280420613     0.00029497430376     0.47093954242090     0.04048705008183     0.48857340749726
                 109     0.00056182277400    -0.00024277087912     0.00000002549614     0.48290254254764     0.02449828129438     0.49259917615799
                 110    -0.00069692656937    -0.00129675854540     0.00013175062404     0.48273315448704     0.02473181133501     0.49253503417795
                 111     0.00084616644631    -0.00013526901365     0.00029821185932     0.47546783750525     0.03420073788256     0.49033142461219
                 112    -0.00097098321159    -0.00024968548442    -0.00004160719197     0.47661979361406     0.03393631533850     0.48944389104744
                 113    -0.00011453657567    -0.00036095926743     0.00018743852745     0.46284954217417     0.04999311315662     0.48715734466920
                 114    -0.00133209922894     0.00030531653911    -0.00095046895724     0.46334651058051     0.04961373940534     0.48703975001414
                 115     0.00114420664007     0.00046460890940    -0.00015606432607     0.47714719766246     0.03373321143121     0.48911959090632
                 116    -0.00045086914893     0.00011447541062     0.00062784448658     0.47673546956718     0.03333762900059     0.48992690143223
                 117     0.00107895042657    -0.00079446334954    -0.00026365424370     0.46840904042300     0.04396578164176     0.48762517793524
                 118    -0.00071763243539     0.00010053362921    -0.00037787252853     0.46844868435991     0.04324483052188     0.48830648511821
                 119     0.00026021621080     0.00025670427482    -0.00084306747026     0.46460194965191     0.04829378272461     0.48710426762349
                 120    -0.00072161271182    -0.00128006406836    -0.00007971062855     0.46525058762910     0.04842443773155     0.48632497463935
                 121    -0.00001729902123     0.00037799420540     0.00014219974335     0.46491721701129     0.04817337161563     0.48690941137308
                 122    -0.00078049840297    -0.00038157106008    -0.00081857324751     0.46480059277427     0.04757191524213     0.48762749198360
                 123     0.00115795964909    -0.00102972522498    -0.00000003245200     0.47337290088751     0.03689658785580     0.48973051125670
                 124    -0.00095049492120    -0.00081521291186    -0.00049949607905     0.47120054633826     0.03882482061269     0.48997463304906
                 125     0.00043374006709     0.00028105121452     0.00055174500202     0.48288957643980     0.02309610036324     0.49401432319696
                 126    -0.00236617001375    -0.00077715015278    -0.00033998987387     0.48290274262257     0.02629122992777     0.49080602744966
                 127     0.00041972962090     0.00072852944543    -0.00010060867521     0.48544743010548     0.02091127982225     0.49364129007228
                 128    -0.00291956078833     0.00026004874691     0.00011786728919     0.48509022446027     0.02245487046401     0.49245490507572
                 129     0.00090514217802    -0.00031905862694     0.00084272742083     0.48631182663418     0.01966352659937     0.49402464676645
                 130    -0.00298189928852     0.00007627091759     0.00016641627022     0.48673412200733     0.02028371617269     0.49298216181998
                 131     0.00107872444126    -0.00071799558895     0.00032258136769     0.47226210536840     0.03733532814774     0.49040256648386
                 132     0.00011801698663     0.00002431325942    -0.00058304774353     0.47200609013922     0.03705218880069     0.49094172106009
                 133     0.00037827893791     0.00002082465619     0.00081208571571     0.49331588586499     0.01049815350572     0.49618596062929
                 134    -0.00281749740561    -0.00029803881146     0.00024259035033     0.49199456888286     0.01373399543170     0.49427143568543
                 135     0.00070059383318     0.00024625055342    -0.00020116320663     0.49569931763140     0.00675623312271     0.49754444924589
                 136    -0.00379714978765    -0.00040572261879     0.00070394746355     0.49519026919128     0.01020203133974     0.49460769946899
                 137     0.00000000000000    -0.00003469090404     0.00000000000000     0.49993061819191     0.00006938180809     0.50000000000000
                 138    -0.00568930826337     0.00010407271213     0.00000000000000     0.49993061819191     0.00575869007146     0.49431069173663
                 139     0.00000000000000     0.00003467646855     0.00000000000000     0.50000000000000     0.00000000000000     0.50000000000000
                 140    -0.00572439633639     0.00003469331113     0.00000000000000     0.50000000000000     0.00579378295865     0.49420621704135
                 141     0.00000000000000     0.00024266796090     0.00000000000000     0.50000000000000     0.00000000000000     0.50000000000000
                 142    -0.00572479356047     0.00006939143710     0.00000000000000     0.50000000000000     0.00579418499757     0.49420581500243
                 143     0.00000000000000    -0.00006936736959     0.00000000000000     0.50000000000000     0.00000000000000     0.50000000000000
                 144    -0.00575908964752     0.00013877324452     0.00000000000000     0.50000000000000     0.00582847626978     0.49417152373022
                 145     0.00000000000000    -0.00000000000000     0.00000000000000     0.50000000000000     0.00000000000000     0.50000000000000
                 146    -0.00582483877678     0.00003467165939     0.00000000000000     0.50000000000000     0.00589418209556     0.49410581790444
                 147     0.00000000000000    -0.00013873473918     0.00000000000000     0.50000000000000     0.00000000000000     0.50000000000000
                 148    -0.00575669302261    -0.00006935774726     0.00000000000000     0.50000000000000     0.00582605076987     0.49417394923013
                 149     0.00000000000000     0.00020818875781     0.00000000000000     0.50000000000000     0.00000000000000     0.50000000000000
                 150    -0.00568694084194     0.00010402940565     0.00000000000000     0.50000000000000     0.00575629377904     0.49424370622096
                 151     0.00000000000000    -0.00010408715564     0.00000000000000     0.50000000000000     0.00000000000000     0.50000000000000
                 152    -0.00579137189624     0.00017339436815     0.00000000000000     0.50000000000000     0.00579137189624     0.49420862810376
                 153     0.00015605493134     0.00001733943682    -0.00024275211541     0.49975724788459     0.00046816479401     0.49977458732140
                 154    -0.00549660147038    -0.00001733943682    -0.00010403662089     0.49975724788459     0.00580871133306     0.49443404078236
                 155    -0.00003468849729    -0.00000000000000    -0.00010406549188     0.49913278756764     0.00111003191342     0.49975718051894
                 156    -0.00561992645528     0.00017345452022    -0.00013876361618     0.49916741830292     0.00679941719281     0.49403316450427
                 157     0.00000000000000     0.00003466685156     0.00000000000000     0.50000000000000     0.00000000000000     0.50000000000000
                 158    -0.00572638300826    -0.00006941070313     0.00000000000000     0.50000000000000     0.00579579371139     0.49420420628861
                 159     0.00000000000000    -0.00006936736959     0.00000000000000     0.50000000000000     0.00000000000000     0.50000000000000
                 160    -0.00572161731049     0.00000000000000     0.00000000000000     0.50000000000000     0.00579097024759     0.49420902975241
                 161     0.00000000000000    -0.00000000000000     0.00000000000000     0.50000000000000     0.00000000000000     0.50000000000000
                 162    -0.00579137189624     0.00010403662089     0.00000000000000     0.50000000000000     0.00586072964350     0.49413927035650
                 163     0.00000000000000     0.00003466685156     0.00000000000000     0.50000000000000     0.00000000000000     0.50000000000000
                 164    -0.00579498924283     0.00000000000000     0.00000000000000     0.50000000000000     0.00586439031161     0.49413560968839
                 165     0.00000000000000    -0.00017347859274     0.00000000000000     0.50000000000000     0.00000000000000     0.50000000000000
                 166    -0.00572122052705     0.00003467406380     0.00000000000000     0.50000000000000     0.00579056865465     0.49420943134535
                 167     0.00000000000000    -0.00006935774726     0.00000000000000     0.50000000000000     0.00000000000000     0.50000000000000
                 168    -0.00579097024759     0.00013870587419     0.00000000000000     0.50000000000000     0.00586032318469     0.49413967681531
                 169     0.00000000000000     0.00003468609088     0.00000000000000     0.50000000000000     0.00000000000000     0.50000000000000
                 170    -0.00576068850639     0.00006940588562     0.00000000000000     0.50000000000000     0.00583009439200     0.49416990560800
                 171     0.00000000000000    -0.00013875398918     0.00000000000000     0.50000000000000     0.00000000000000     0.50000000000000
                 172    -0.00575669302261     0.00006935774726     0.00000000000000     0.50000000000000     0.00582605076987     0.49417394923013
                 173     0.00000000000000     0.00003468127905     0.00000000000000     0.50000000000000     0.00000000000000     0.50000000000000
                 174    -0.00579016711740     0.00006934331877     0.00000000000000     0.50000000000000     0.00585951043617     0.49414048956383
                 175     0.00000000000000    -0.00003468609088     0.00000000000000     0.50000000000000     0.00000000000000     0.50000000000000
                 176    -0.00579579371139     0.00006941070313     0.00000000000000     0.50000000000000     0.00586520441452     0.49413479558548
                 177     0.00000000000000    -0.00010405827263     0.00000000000000     0.50000000000000     0.00000000000000     0.50000000000000
                 178    -0.00575669302261     0.00013871549452     0.00000000000000     0.50000000000000     0.00582605076987     0.49417394923013
                 179     0.00000000000000     0.00010411605470     0.00000000000000     0.50000000000000     0.00000000000000     0.50000000000000
                 180    -0.00578615480563    -0.00006929526713     0.00000000000000     0.50000000000000     0.00585545007276     0.49414454992724
                 181     0.00000000000000    -0.00006937699459     0.00000000000000     0.50000000000000     0.00000000000000     0.50000000000000
                 182    -0.00569128262077    -0.00006940588562     0.00000000000000     0.50000000000000     0.00576068850639     0.49423931149361
                 183     0.00000000000000     0.00013877131885    -0.00000693818081     0.49999306181919     0.00000693818081     0.50000000000000
                 184    -0.00572783795707    -0.00006934428054     0.00000000000000     0.50000000000000     0.00579718223761     0.49420281776239
                 185     0.00000000000000    -0.00010404383714     0.00000000000000     0.50000000000000     0.00000000000000     0.50000000000000
                 186    -0.00572122052705    -0.00003467406380     0.00000000000000     0.50000000000000     0.00579056865465     0.49420943134535
                 187     0.00000000000000    -0.00006940588562     0.00000000000000     0.50000000000000     0.00000000000000     0.50000000000000
                 188    -0.00572320499480    -0.00006937218176     0.00000000000000     0.50000000000000     0.00579257717655     0.49420742282345
                 189     0.00000000000000     0.00003467646855     0.00000000000000     0.50000000000000     0.00000000000000     0.50000000000000
                 190    -0.00579297904815     0.00003468849729     0.00000000000000     0.50000000000000     0.00586235604274     0.49413764395726
                 191     0.00000000000000     0.00010398613518     0.00000000000000     0.50000000000000     0.00000000000000     0.50000000000000
                 192    -0.00575908964752     0.00020815986678     0.00000000000000     0.50000000000000     0.00582847626978     0.49417152373022
                 193     0.00000000000000    -0.00003469090404     0.00000000000000     0.50000000000000     0.00000000000000     0.50000000000000
                 194    -0.00575749167592    -0.00013873473918     0.00000000000000     0.50000000000000     0.00582685904550     0.49417314095450
                 195     0.00000000000000     0.00010404383714     0.00000000000000     0.50000000000000     0.00000000000000     0.50000000000000
                 196    -0.00569009784193     0.00010408715564     0.00000000000000     0.50000000000000     0.00575948927902     0.49424051072098
                 197     0.00000000000000    -0.00017343045439     0.00000000000000     0.50000000000000     0.00000000000000     0.50000000000000
                 198    -0.00579016711740     0.00006934331877     0.00000000000000     0.50000000000000     0.00585951043617     0.49414048956383
                 199     0.00000000000000     0.00027746947836     0.00000000000000     0.50000000000000     0.00000000000000     0.50000000000000
                 200    -0.00572439633639     0.00003469331113     0.00000000000000     0.50000000000000     0.00579378295865     0.49420621704135
                 201     0.00006935293710    -0.00024273527984     0.00027741174839     0.49916776475484     0.00138705874194     0.49944517650323
                 202    -0.00503122831367    -0.00020818875781    -0.00010409437890     0.49920194309507     0.00617626648161     0.49462179042332
                 203     0.00020808767427     0.00006936255809    -0.00010404383714     0.49927169314004     0.00100575709232     0.49972254976764
                 204    -0.00547926203357     0.00003467887363     0.00031210986267     0.49934110140103     0.00655430711610     0.49410459148287
                 205     0.00000000000000    -0.00010402940565     0.00000000000000     0.50000000000000     0.00000000000000     0.50000000000000
                 206    -0.00575869007146    -0.00003469090404     0.00000000000000     0.50000000000000     0.00582807187955     0.49417192812045
                 207     0.00000000000000     0.00010405827263     0.00000000000000     0.50000000000000     0.00000000000000     0.50000000000000
                 208    -0.00565540212338    -0.00020817431129     0.00000000000000     0.50000000000000     0.00572479356047     0.49427520643953
                 209     0.00000000000000    -0.00006937699459     0.00000000000000     0.50000000000000     0.00000000000000     0.50000000000000
                 210    -0.00572161731049     0.00000000000000     0.00000000000000     0.50000000000000     0.00579097024759     0.49420902975241
                 211     0.00000000000000     0.00003469571855     0.00000000000000     0.50000000000000     0.00000000000000     0.50000000000000
                 212    -0.00582483877678    -0.00003467165939     0.00000000000000     0.50000000000000     0.00582483877678     0.49417516122322
                 213     0.00000000000000     0.00024270161570     0.00000000000000     0.50000000000000     0.00000000000000     0.50000000000000
                 214    -0.00569207274747     0.00006941552131     0.00000000000000     0.50000000000000     0.00576148826878     0.49423851173122
                 215     0.00000000000000    -0.00013871549452     0.00000000000000     0.50000000000000     0.00000000000000     0.50000000000000
                 216    -0.00579257717655    -0.00006937218176     0.00000000000000     0.50000000000000     0.00586194935831     0.49413805064169
                 217     0.00000000000000     0.00010397171969     0.00000000000000     0.50000000000000     0.00000000000000     0.50000000000000
                 218    -0.00579378295865    -0.00010407993339     0.00000000000000     0.50000000000000     0.00586316958090     0.49413683041910
                 219     0.00000000000000     0.00003471498993     0.00000000000000     0.50000000000000     0.00000000000000     0.50000000000000
                 220    -0.00575589459085     0.00013869625520     0.00000000000000     0.50000000000000     0.00582524271845     0.49417475728155
                 221     0.00000000000000    -0.00000000000000     0.00000000000000     0.50000000000000     0.00000000000000     0.50000000000000
                 222    -0.00575789108567     0.00003468609088     0.00000000000000     0.50000000000000     0.00582726326743     0.49417273673257
                 223     0.00000000000000     0.00006939625260     0.00000000000000     0.50000000000000     0.00000000000000     0.50000000000000
                 224    -0.00575310182297    -0.00003465723990     0.00000000000000     0.50000000000000     0.00582241630277     0.49417758369723
                 225     0.00000000000000     0.00010411605470     0.00000000000000     0.50000000000000     0.00000000000000     0.50000000000000
                 226    -0.00572280799112     0.00003468368479     0.00000000000000     0.50000000000000     0.00579217536071     0.49420782463929
                 227     0.00000000000000     0.00010404383714     0.00000000000000     0.50000000000000     0.00000000000000     0.50000000000000
                 228    -0.00572280799112    -0.00010405105438     0.00000000000000     0.50000000000000     0.00579217536071     0.49420782463929
                 229     0.00000000000000    -0.00003467646855     0.00000000000000     0.50000000000000     0.00000000000000     0.50000000000000
                 230    -0.00575669302261     0.00006935774726     0.00000000000000     0.50000000000000     0.00582605076987     0.49417394923013
                 231     0.00000000000000     0.00003470053439     0.00000000000000     0.50000000000000     0.00000000000000     0.50000000000000
                 232    -0.00579338097551    -0.00006938180809     0.00000000000000     0.50000000000000     0.00586276278360     0.49413723721640
                 233     0.00104022191401     0.00024271844660     0.00079750346741     0.49303051317614     0.00967406380028     0.49729542302358
                 234    -0.00340018041774     0.00000000000000     0.00052043577822     0.49427520643953     0.01169245715079     0.49403233640969
                 235    -0.00045082535719     0.00020807324178    -0.00010403662089     0.48435982799279     0.02233319461784     0.49330697738937
                 236    -0.00183759794744     0.00013868663754     0.00013868663754     0.48509118646418     0.02208584702864     0.49282296650718
                 237     0.00031208821694    -0.00169914695887    -0.00114432346210     0.46591303141688     0.04494070323878     0.48914626534434
                 238    -0.00048604360505     0.00024302180253    -0.00017358700181     0.46927510068046     0.04405638105819     0.48666851826135
                 239     0.00020810210877    -0.00083240843507    -0.00013873473918     0.45692286348502     0.05695061043285     0.48612652608213
                 240    -0.00052007489078     0.00093613480341     0.00038138825324     0.45690312738368     0.05817904444907     0.48491782816726
                 241     0.00093645948946     0.00065899001110    -0.00020810210877     0.46288845726970     0.05282325194229     0.48428829078801
                 242    -0.00065885290242     0.00048547055968    -0.00090158818226     0.46026076704348     0.05308967334767     0.48664955960885
                 243     0.00124852604564    -0.00052021918568     0.00006936255809     0.48238191024485     0.02517860858708     0.49243948116807
                 244    -0.00121477162293     0.00034707760655     0.00038178536721     0.48101485492156     0.02707205331112     0.49191309176732
                 245     0.00065876152833    -0.00010401497816    -0.00017335829693     0.49046529366895     0.01352194716039     0.49601275917065
                 246    -0.00305237599723     0.00041623309053     0.00058966354492     0.49087755809920     0.01543531044051     0.49368713146028
                 247     0.00024280263614    -0.00055497745404    -0.00104058272633     0.47405480402359     0.03430454387790     0.49164065209851
                 248    -0.00274001109878     0.00069367369589     0.00024278579356     0.47443812430633     0.03565482796892     0.48990704772475
                 249     0.00006932409012    -0.00038128249567    -0.00006932409012     0.49258232235702     0.01081455805893     0.49660311958406
                 250    -0.00371192673281    -0.00041629084854    -0.00000000000000     0.49229861930202     0.01439672517866     0.49330465551932
                 251    -0.00058962264151    -0.00083240843507     0.00038152053274     0.48803412874584     0.01664816870144     0.49531770255272
                 252    -0.00298486741635     0.00090240177704    -0.00048590864917     0.48833819241983     0.01971400805220     0.49194779952797
                 253     0.00045107564192    -0.00024288688411    -0.00027758501041     0.49354614850798     0.00988896599584     0.49656488549618
                 254    -0.00426343154246    -0.00072790294627    -0.00051993067591     0.49317157712305     0.01337954939341     0.49344887348354
                 255     0.00052025527192    -0.00079772475028     0.00034683684795     0.48862375138735     0.01591981132075     0.49545643729190
                 256    -0.00197655870726     0.00017338234274     0.00017338234274     0.48970108884111     0.01719952840003     0.49309938275886
                 257    -0.00069396252602    -0.00149201943095    -0.00024288688411     0.47317834836919     0.03723108952117     0.48959056210965
                 258    -0.00086733277824     0.00020815986678     0.00038162642243     0.47311268387455     0.03670552317513     0.49018179295032
                 259    -0.00024297119056     0.00006942034016    -0.00000000000000     0.48889274557445     0.01641791044776     0.49468934397779
                 260    -0.00218295218295     0.00000000000000    -0.00031185031185     0.48679833679834     0.01940401940402     0.49379764379764
                 261     0.00041631973356     0.00038162642243    -0.00024285317791     0.49760616153206     0.00357341104635     0.49882042742159
                 262    -0.00481769028144     0.00013863856925     0.00017329821156     0.49746984611119     0.00824899487037     0.49428115901844
                 263     0.00000000000000     0.00003469571855     0.00000000000000     0.50000000000000     0.00000000000000     0.50000000000000
                 264    -0.00572558817406     0.00013880213755     0.00000000000000     0.50000000000000     0.00579498924283     0.49420501075717
                 265     0.00000000000000     0.00006935774726     0.00000000000000     0.50000000000000     0.00000000000000     0.50000000000000
                 266    -0.00575749167592    -0.00013873473918     0.00000000000000     0.50000000000000     0.00582685904550     0.49417314095450
                 267     0.00000000000000    -0.00003468609088     0.00000000000000     0.50000000000000     0.00000000000000     0.50000000000000
                 268    -0.00568536365527     0.00010400055467     0.00000000000000     0.50000000000000     0.00575469735839     0.49424530264161
                 269     0.00000000000000    -0.00027754648904     0.00000000000000     0.50000000000000     0.00000000000000     0.50000000000000
                 270    -0.00569128262077    -0.00020821765686     0.00000000000000     0.50000000000000     0.00576068850639     0.49423931149361
                 271     0.00000000000000    -0.00003467165939     0.00000000000000     0.50000000000000     0.00000000000000     0.50000000000000
                 272    -0.00579257717655     0.00006937218176     0.00000000000000     0.50000000000000     0.00586194935831     0.49413805064169
                 273     0.00000000000000    -0.00006936736959     0.00000000000000     0.50000000000000     0.00000000000000     0.50000000000000
                 274    -0.00575549545801     0.00010401497816     0.00000000000000     0.50000000000000     0.00582483877678     0.49417516122322
                 275     0.00000000000000    -0.00003469571855     0.00000000000000     0.50000000000000     0.00000000000000     0.50000000000000
                 276    -0.00579378295865    -0.00003469331113     0.00000000000000     0.50000000000000     0.00586316958090     0.49413683041910
                 277     0.00000000000000    -0.00013877324452     0.00000000000000     0.50000000000000     0.00000000000000     0.50000000000000
                 278    -0.00575589459085    -0.00006934812760     0.00000000000000     0.50000000000000     0.00582524271845     0.49417475728155
                 279     0.00000000000000    -0.00010402940565     0.00000000000000     0.50000000000000     0.00000000000000     0.50000000000000
                 280    -0.00579137189624    -0.00003467887363     0.00000000000000     0.50000000000000     0.00586072964350     0.49413927035650
                 281     0.00000000000000     0.00013873473918     0.00000000000000     0.50000000000000     0.00000000000000     0.50000000000000
                 282    -0.00572598556358     0.00003470294281     0.00000000000000     0.50000000000000     0.00579539144919     0.49420460855081
                 283     0.00000000000000    -0.00020801553183     0.00000000000000     0.50000000000000     0.00000000000000     0.50000000000000
                 284    -0.00569049271339     0.00006939625260     0.00000000000000     0.50000000000000     0.00575988896600     0.49424011103400
                 285     0.00000000000000     0.00020807324178     0.00000000000000     0.50000000000000     0.00000000000000     0.50000000000000
                 286    -0.00582605076987     0.00020807324178     0.00000000000000     0.50000000000000     0.00589540851713     0.49410459148287
                 287     0.00000000000000    -0.00010405827263     0.00000000000000     0.50000000000000     0.00000000000000     0.50000000000000
                 288    -0.00579498924283    -0.00006940106878     0.00000000000000     0.50000000000000     0.00586439031161     0.49413560968839
                 289     0.00000000000000    -0.00000000000000     0.00000000000000     0.50000000000000     0.00000000000000     0.50000000000000
                 290    -0.00578976563583     0.00003466925530     0.00000000000000     0.50000000000000     0.00585910414644     0.49414089585356
                 291     0.00000000000000    -0.00010404383714     0.00000000000000     0.50000000000000     0.00000000000000     0.50000000000000
                 292    -0.00579097024759     0.00000000000000     0.00000000000000     0.50000000000000     0.00586032318469     0.49413967681531
                 293     0.00000000000000     0.00020821765686     0.00000000000000     0.50000000000000     0.00000000000000     0.50000000000000
                 294    -0.00575709232156    -0.00003468127905     0.00000000000000     0.50000000000000     0.00582645487966     0.49417354512034
                 295     0.00000000000000    -0.00006939625260     0.00000000000000     0.50000000000000     0.00000000000000     0.50000000000000
                 296    -0.00578976563583    -0.00003466925530     0.00000000000000     0.50000000000000     0.00585910414644     0.49414089585356
                 297     0.00000000000000    -0.00024266796090     0.00000000000000     0.50000000000000     0.00000000000000     0.50000000000000
                 298    -0.00568930826337     0.00003469090404     0.00000000000000     0.50000000000000     0.00575869007146     0.49424130992854
                 299     0.00000000000000     0.00027731558514     0.00000000000000     0.50000000000000     0.00000000000000     0.50000000000000
                 300    -0.00586194935831     0.00006937218176     0.00000000000000     0.50000000000000     0.00586194935831     0.49413805064169
 l=          40
                   1     0.00032977531509     0.00062437036112    -0.00100928605451     0.40334028163833     0.11917085710286     0.47748886125882
                   2     0.00013521731092     0.00054840752973    -0.00083603623856     0.42055331281667     0.10926654670450     0.47018014047883
                   3    -0.00028789362346     0.00081167980843    -0.00132161638921     0.40471315318699     0.12362893257410     0.47165791423891
                   4    -0.00069698404019    -0.00029133979345    -0.00084599982030     0.40640161206265     0.12337720962241     0.47022117831494
                   5    -0.00034668534100     0.00176831861924    -0.00060324505290     0.39945003966276     0.13056240856855     0.46998755176869
                   6     0.00022895924197    -0.00035730232698     0.00044733820321     0.39982851923350     0.12892962111867     0.47124185964783
                   7     0.00019754165977    -0.00029508630146    -0.00096457015549     0.40038582839488     0.13076809038557     0.46884608121955
                   8    -0.00164102449132    -0.00036417749057    -0.00012481097208     0.40175931984387     0.13010523976344     0.46813544039269
                   9    -0.00081533712409     0.00042665142802    -0.00002427183842     0.39538878470909     0.13461763747349     0.46999357781741
                  10    -0.00031560371383    -0.00184551591895    -0.00176913503348     0.39495537122664     0.13513018079539     0.46991444797796
                  11     0.00080438421668     0.00098800842080    -0.00137643271640     0.41542395922096     0.11276239188784     0.47181364889120
                  12     0.00069004492531     0.00001050082643    -0.00082530841061     0.40926602596428     0.11586577538883     0.47486819864689
                  13    -0.00024284043669     0.00102359232922    -0.00099583551371     0.42335257972778     0.10192702119412     0.47472039907811
                  14     0.00048230469020    -0.00129788727698    -0.00101688180004     0.42395276842917     0.10061906637875     0.47542816519208
                  15     0.00036083186318     0.00018040738308    -0.00004516460859     0.41066663793232     0.11536362702848     0.47396973503920
                  16    -0.00008336209677    -0.00013182110245     0.00035029920282     0.41130468380289     0.11516551129063     0.47352980490648
                  17     0.00019408218661     0.00009368875400     0.00008323842796     0.42522129680093     0.09867183118234     0.47610687201673
                  18    -0.00013519254613     0.00019416274104     0.00064838697246     0.42580883025387     0.09879901627206     0.47539215347408
                  19     0.00124952639872     0.00061768875262    -0.00051034580907     0.39595671203983     0.13430357390232     0.46973971405785
                  20    -0.00079073798979     0.00024275115325    -0.00010058773821     0.40051626553445     0.13169334620904     0.46779038825650
                  21     0.00040582100715    -0.00012833492792    -0.00094692763787     0.39597372437251     0.13476138937456     0.46926488625293
                  22    -0.00026708605093     0.00118617723058    -0.00052031614415     0.39700135844781     0.13412790870475     0.46887073284743
                  23     0.00035679356395    -0.00112352896573     0.00076981502238     0.40050651883431     0.13142035833004     0.46807312283566
                  24    -0.00024255977569    -0.00049598872472    -0.00082843943936     0.40001345202157     0.13131938146543     0.46866716651299
                  25     0.00129442628117    -0.00185327061591     0.00078782594985     0.40483829208460     0.12553119989019     0.46963050802521
                  26    -0.00009012076221     0.00250125420147     0.00130096092518     0.40542446860605     0.12569941460063     0.46887611679333
                  27     0.00142536523770     0.00121736583773    -0.00041969857568     0.40848909244630     0.12150115702407     0.47000975052963
                  28     0.00021493239188    -0.00019428804785    -0.00030869254966     0.40493110943037     0.12374857902271     0.47132031154692
                  29     0.00137965466217     0.00030849460442    -0.00011443763019     0.41031941338713     0.11757859817363     0.47210198843923
                  30    -0.00044373566337    -0.00036398868631    -0.00030148687914     0.41107812677875     0.11715560919142     0.47176626402983
                  31    -0.00020128743049     0.00028799349369    -0.00013188467806     0.39071411520420     0.14102093864764     0.46826494614816
                  32     0.00072156839194    -0.00031913658403     0.00112744620970     0.39348076764164     0.13851136353618     0.46800786882218
                  33    -0.00004164858765    -0.00039896153741     0.00116558503627     0.39441834310193     0.13653180734763     0.46904984955044
                  34    -0.00070429684456     0.00207812742346     0.00023933739584     0.39518339939446     0.13539116741634     0.46942543318920
                  35     0.00070404514166    -0.00140436961242    -0.00068991240202     0.39327354614225     0.13840431511805     0.46832213873970
                  36     0.00020454234719     0.00004872034060     0.00021803149356     0.39137730156400     0.13925127470702     0.46937142372898
                  37    -0.00019070514670    -0.00033295927334     0.00092975017374     0.39780243584125     0.13356802874429     0.46862953541446
                  38    -0.00014573333067    -0.00105480715026     0.00046496764928     0.39854573924439     0.13229999360576     0.46915426714985
                  39     0.00056883236596    -0.00302180945400     0.00003465166164     0.38912812258849     0.14407089121192     0.46680098619958
                  40     0.00001035895228     0.00170952927367    -0.00145641391155     0.38975624026806     0.14239432664815     0.46784943308379
                  41    -0.00010749777853    -0.00183086539914     0.00072796108747     0.40400422996092     0.12598448821902     0.47001128182006
                  42     0.00054104094387     0.00098487669492     0.00079757661335     0.40106737794449     0.12826918304245     0.47066343901307
                  43    -0.00077024107446     0.00098158106911    -0.00047878383141     0.39613859173162     0.13370181565497     0.47015959261340
                  44    -0.00026013353794    -0.00239788940260    -0.00087124413672     0.39839721601805     0.13192368098323     0.46967910299873
                  45    -0.00069001895222     0.00030868792565     0.00002078903441     0.38306831606102     0.14877074278103     0.46816094115795
                  46    -0.00009016651859    -0.00131426942655     0.00098836645631     0.38523176460345     0.14730549325746     0.46746274213909
                  47    -0.00027739349678     0.00035726281817     0.00065894859786     0.38778457598205     0.14540646219668     0.46680896182127
                  48    -0.00036072956792     0.00040935604096    -0.00024970664136     0.39027964816620     0.14321783997266     0.46650251186115
                  49     0.00002085929637     0.00089492522083    -0.00093997045759     0.37692795720164     0.15868836566735     0.46438367713101
                  50     0.00066261869047    -0.00123495288240     0.00023944213564     0.37913279502288     0.15679680549268     0.46407039948445
                  51     0.00039869904806    -0.00068325473115    -0.00203613020536     0.37036478984103     0.16678138489510     0.46285382526388
                  52    -0.00153291416006     0.00278126181696     0.00017329919485     0.36883954208802     0.16810004702141     0.46306041089056
                  53    -0.00050298918681    -0.00323027984574     0.00033658459871     0.39378180439422     0.13910068374898     0.46711751185680
                  54    -0.00064507277644     0.00228515795494     0.00004878169224     0.39399729530198     0.13963790299363     0.46636480170438
                  55    -0.00025314087694    -0.00138370823674     0.00227490863235     0.39692744417195     0.13537595221427     0.46769660361379
                  56    -0.00025663089652    -0.00039855198611    -0.00043319481692     0.39807568114230     0.13387589326970     0.46804842558800
                  57     0.00063822144619     0.00185238049052     0.00055848602564     0.37185800520691     0.16620392031712     0.46193807447597
                  58     0.00034339564271    -0.00117277390742     0.00145023806506     0.37482204735392     0.16388863460517     0.46128931804091
                  59     0.00071150639249    -0.00037830425141    -0.00049964160295     0.37426076072615     0.16349256457280     0.46224667470105
                  60     0.00015599088758    -0.00012124462890    -0.00080445117360     0.37210820871759     0.16544568377822     0.46244610750419
                  61     0.00060671990830     0.00053044465693    -0.00028081881099     0.38607625963838     0.14789734459206     0.46602639576956
                  62    -0.00142562507755    -0.00132514635556     0.00048898990951     0.38012009644982     0.15398908495037     0.46589081859980
                  63     0.00055846242603     0.00073190395127     0.00023240354568     0.39448319662874     0.13781462914596     0.46770217422530
                  64    -0.00009018333876    -0.00009714151251     0.00056903699665     0.39305750985607     0.14020282565407     0.46673966448985
                  65    -0.00065894584644    -0.00067970639715     0.00107886737406     0.40453433855958     0.12611198978312     0.46935367165730
                  66    -0.00130037939346    -0.00013522548548    -0.00036431843564     0.39827846623647     0.13077352465287     0.47094800911066
                  67    -0.00013868086581     0.00089442184047     0.00075923265509     0.42448347475828     0.10092790247834     0.47458862276338
                  68    -0.00089481381935    -0.00134907601963    -0.00050972241680     0.42145236175344     0.10305492942963     0.47549270881692
                  69    -0.00005532187887     0.00112456096880     0.00050669915571     0.42415939301110     0.10000571170863     0.47583489528027
                  70     0.00010047968862     0.00111366352595    -0.00036108383180     0.42321695278711     0.10047301947330     0.47631002773958
                  71     0.00007632720925     0.00007629520695     0.00018722429107     0.43584580350579     0.08605211399260     0.47810208250161
                  72    -0.00075951376446     0.00049588433262    -0.00089813522218     0.43412824499567     0.08673087286559     0.47914088213873
                  73     0.00087075826316     0.00114122897928     0.00041981285392     0.43835178276405     0.08093734261851     0.48071087461744
                  74    -0.00103334794538     0.00055826084340     0.00010400512162     0.43976071192678     0.08024738333587     0.47999190473735
                  75     0.00107881474204     0.00141870445419     0.00039881667944     0.42551863686376     0.09740753355897     0.47707382957728
                  76     0.00066281475601    -0.00012121127527     0.00050308801798     0.42605126058260     0.09819794308566     0.47575079633174
                  77     0.00054779011975     0.00056510308816     0.00096719673994     0.43007772298901     0.09204956918943     0.47787270782156
                  78    -0.00006937914678    -0.00064498569553     0.00092583117671     0.43166333978882     0.09116753647761     0.47716912373356
                  79     0.00014569364176    -0.00121050801977    -0.00098160917486     0.41182893224736     0.11461861251207     0.47355245524057
                  80    -0.00159100474339    -0.00034673554835    -0.00101892987161     0.41492723132725     0.11166849550902     0.47340427316373
                  81    -0.00100995852989    -0.00066630903824     0.00000356016635     0.41623103470883     0.11006533606811     0.47370362922306
                  82    -0.00142585392742    -0.00102341994297    -0.00159583911753     0.41517732651630     0.11234407591273     0.47247859757097
                  83    -0.00019075689909    -0.00030518828110    -0.00074557341966     0.42316757586099     0.10364307191245     0.47318935222656
                  84     0.00012491684578     0.00002444796713     0.00019060939291     0.41856247500268     0.10482447194620     0.47661305305112
                  85    -0.00086395880787    -0.00121786743504     0.00008668706340     0.44062351120688     0.08042459329748     0.47895189549563
                  86    -0.00050261094186     0.00115082890987     0.00032937187926     0.43619381894657     0.08285612486831     0.48095005618512
                  87     0.00082906808142    -0.00043354655517    -0.00097832295684     0.46516947700477     0.04976260307433     0.48506791992091
                  88    -0.00074224438839    -0.00022200228479     0.00010066983792     0.46280116173209     0.05099872207180     0.48620011619610
                  89    -0.00020117162388     0.00022551953396    -0.00008681416676     0.46919007101071     0.04241102280140     0.48839890618789
                  90    -0.00062429623408    -0.00081506997464    -0.00074921885806     0.46986416218854     0.04226918186038     0.48786665595108
                  91     0.00003120112730     0.00009018911915    -0.00007976213051     0.45518738636404     0.06065634703787     0.48415626659808
                  92    -0.00036068145378    -0.00029823807608     0.00066240256660     0.45621863615685     0.05942821644649     0.48435314739666
                  93     0.00060705858155     0.00113433890799     0.00010756129158     0.44286201150188     0.07575616169749     0.48138182680062
                  94    -0.00050653486725    -0.00221682125927     0.00039205319667     0.44541973330576     0.07339689781832     0.48118336887593
                  95     0.00040585709084     0.00118652620268    -0.00101662937797     0.43673566258085     0.08368387853697     0.47958045888217
                  96    -0.00084271324473    -0.00091214796028     0.00087034907558     0.43840188719131     0.08337227942106     0.47822583338763
                  97     0.00030870357574    -0.00048217565239     0.00005878373530     0.43953381845876     0.08075328084067     0.47971290070056
                  98    -0.00048546237780     0.00079411397964     0.00124835936287     0.43750857958663     0.08352065344002     0.47897076697335
                  99    -0.00053064643122     0.00083243107676    -0.00053440527038     0.44579009593004     0.07401326371601     0.48019664035395
                 100    -0.00012483889390    -0.00167851329131    -0.00010751653516     0.44332237223850     0.07555053301946     0.48112709474204
                 101     0.00022200710741     0.00049253890430    -0.00050975611691     0.46442612107582     0.04974531419938     0.48582856472480
                 102    -0.00109968002275    -0.00131131764354     0.00081178738796     0.46226256706011     0.05015355182865     0.48758388111123
                 103     0.00082169236316    -0.00026001941458     0.00092228417947     0.46604272880519     0.04642168232006     0.48753558887475
                 104    -0.00022890365514     0.00145680572743    -0.00011796447899     0.46545609583922     0.04652572047933     0.48801818368145
                 105     0.00066231863582     0.00111316783444    -0.00051675660321     0.46672793112378     0.04579372439020     0.48747834448602
                 106     0.00003470535812    -0.00060726515317    -0.00009725737634     0.46741473868504     0.04488377912004     0.48770148219492
                 107     0.00125566849554     0.00049602385413    -0.00066252455050     0.46099356129459     0.05223633343408     0.48677010527133
                 108    -0.00127288209426     0.00038847651823     0.00016301380009     0.46109565273984     0.05205978763239     0.48684455962777
                 109     0.00015259209471    -0.00009365893655     0.00056528464476     0.47606658874163     0.03411580139355     0.48981760986481
                 110    -0.00035018304130    -0.00062762123008    -0.00016640617552     0.47589682237540     0.03428600677768     0.48981717084691
                 111     0.00043352657403     0.00034688593778    -0.00039540363683     0.46519518277370     0.04699721465666     0.48780760256964
                 112    -0.00088076163014    -0.00038842790969    -0.00010747108392     0.46670268048849     0.04650814329839     0.48678917621312
                 113     0.00012486075999    -0.00110715010880    -0.00011099040776     0.45277480047419     0.06330699947063     0.48391820005518
                 114    -0.00054102651166     0.00018381655434    -0.00090173876200     0.45320597498394     0.06258853349459     0.48420549152148
                 115     0.00062402830725     0.00083566039539     0.00033282366912     0.46959164441017     0.04346621888155     0.48694213670827
                 116    -0.00030877239729    -0.00001035962216     0.00118285324514     0.46860294459322     0.04353480799452     0.48786224741226
                 117     0.00109634474027    -0.00043018309578     0.00054467078527     0.45987007040818     0.05538811480628     0.48474181478554
                 118    -0.00074185716419    -0.00004506089849    -0.00001039260488     0.46010250577502     0.05410376137647     0.48579373284851
                 119     0.00066945385387    -0.00025664772636    -0.00143245355909     0.45616216879259     0.05930368818177     0.48453414302564
                 120    -0.00096467176075    -0.00139498804706     0.00019079490280     0.45695227850657     0.05960035095324     0.48344737054019
                 121    -0.00011103160653     0.00054817845423    -0.00002077699995     0.45632993199161     0.05911452178399     0.48455554622440
                 122    -0.00117557118068    -0.00042652928088    -0.00015984049326     0.45601376822966     0.05877439079051     0.48521184097982
                 123     0.00125147023215    -0.00059626745146     0.00000340538688     0.46767840759151     0.04488206139222     0.48743953101627
                 124    -0.00058975837243    -0.00055854305732    -0.00011795412803     0.46490075817812     0.04679678618936     0.48830245563252
                 125     0.00032271087188    -0.00015964317482     0.00086066695366     0.47620656542338     0.03283402292676     0.49095941164985
                 126    -0.00168251585579    -0.00101298260194    -0.00011796809092     0.47616586579757     0.03434260839372     0.48949152580871
                 127     0.00025671316855     0.00078746596633     0.00001735531165     0.48184157746852     0.02569936805879     0.49245905447270
                 128    -0.00222940623800     0.00021497751501     0.00013520889458     0.48106435130497     0.02705281928311     0.49188282941192
                 129     0.00114789597552    -0.00017340014151     0.00079418397125     0.48332258880176     0.02365148014547     0.49302593105277
                 130    -0.00229188613582     0.00050970513344     0.00001385567901     0.48393250524647     0.02378226214257     0.49228523261096
                 131     0.00121407286015    -0.00109612691671     0.00041276953485     0.46827802902597     0.04278736868383     0.48893460229020
                 132    -0.00010411220092     0.00009717835734    -0.00093003983087     0.46778818695832     0.04272004479363     0.48949176824805
                 133     0.00040948510316     0.00006940998151    -0.00003449616953     0.49051427252010     0.01460681900854     0.49487890847136
                 134    -0.00212111330818     0.00011105464203     0.00014568183340     0.48907963173446     0.01704905257589     0.49387131568965
                 135     0.00091902430810     0.00008670343816    -0.00022195296965     0.49395176726494     0.00948504333399     0.49656318940107
                 136    -0.00338451763875    -0.00033291814868     0.00058952450056     0.49307885186199     0.01237924696935     0.49454190116866
                 137     0.00000693866223    -0.00004856870991     0.00000000000000     0.49987510793127     0.00015958537986     0.49996530668887
                 138    -0.00563372772628     0.00012488436646     0.00002775079784     0.49984736676110     0.00581411176301     0.49433852147588
                 139     0.00000000000000     0.00003467646855     0.00000000000000     0.50000000000000     0.00000000000000     0.50000000000000
                 140    -0.00572439633639     0.00003469331113     0.00000000000000     0.50000000000000     0.00579378295865     0.49420621704135
                 141     0.00000000000000     0.00024266796090     0.00000000000000     0.50000000000000     0.00000000000000     0.50000000000000
                 142    -0.00572479356047     0.00006939143710     0.00000000000000     0.50000000000000     0.00579418499757     0.49420581500243
                 143     0.00000000000000    -0.00006936736959     0.00000000000000     0.50000000000000     0.00000000000000     0.50000000000000
                 144    -0.00575908964752     0.00013877324452     0.00000000000000     0.50000000000000     0.00582847626978     0.49417152373022
                 145     0.00000000000000    -0.00000000000000     0.00000000000000     0.50000000000000     0.00000000000000     0.50000000000000
                 146    -0.00582483877678     0.00003467165939     0.00000000000000     0.50000000000000     0.00589418209556     0.49410581790444
                 147     0.00000000000000    -0.00013873473918     0.00000000000000     0.50000000000000     0.00000000000000     0.50000000000000
                 148    -0.00575669302261    -0.00006935774726     0.00000000000000     0.50000000000000     0.00582605076987     0.49417394923013
                 149     0.00000000000000     0.00020818875781     0.00000000000000     0.50000000000000     0.00000000000000     0.50000000000000
                 150    -0.00568694084194     0.00010402940565     0.00000000000000     0.50000000000000     0.00575629377904     0.49424370622096
                 151     0.00000000000000    -0.00010408715564     0.00000000000000     0.50000000000000     0.00000000000000     0.50000000000000
                 152    -0.00579137189624     0.00017339436815     0.00000000000000     0.50000000000000     0.00579137189624     0.49420862810376
                 153     0.00017339436815    -0.00000000000000    -0.00024275211541     0.49975724788459     0.00048550423082     0.49975724788459
                 154    -0.00547926203357    -0.00003467887363    -0.00010403662089     0.49975724788459     0.00579137189624     0.49445138021917
                 155    -0.00003468849729    -0.00000000000000    -0.00010406549188     0.49913278756764     0.00111003191342     0.49975718051894
                 156    -0.00561992645528     0.00017345452022    -0.00013876361618     0.49916741830292     0.00679941719281     0.49403316450427
                 157     0.00000000000000     0.00003466685156     0.00000000000000     0.50000000000000     0.00000000000000     0.50000000000000
                 158    -0.00572638300826    -0.00006941070313     0.00000000000000     0.50000000000000     0.00579579371139     0.49420420628861
                 159     0.00000000000000    -0.00006936736959     0.00000000000000     0.50000000000000     0.00000000000000     0.50000000000000
                 160    -0.00572161731049     0.00000000000000     0.00000000000000     0.50000000000000     0.00579097024759     0.49420902975241
                 161     0.00000000000000    -0.00000000000000     0.00000000000000     0.50000000000000     0.00000000000000     0.50000000000000
                 162    -0.00579137189624     0.00010403662089     0.00000000000000     0.50000000000000     0.00586072964350     0.49413927035650
                 163     0.00000000000000     0.00003466685156     0.00000000000000     0.50000000000000     0.00000000000000     0.50000000000000
                 164    -0.00579498924283     0.00000000000000     0.00000000000000     0.50000000000000     0.00586439031161     0.49413560968839
                 165     0.00000000000000    -0.00017347859274     0.00000000000000     0.50000000000000     0.00000000000000     0.50000000000000
                 166    -0.00572122052705     0.00003467406380     0.00000000000000     0.50000000000000     0.00579056865465     0.49420943134535
                 167     0.00000000000000    -0.00006935774726     0.00000000000000     0.50000000000000     0.00000000000000     0.50000000000000
                 168    -0.00579097024759     0.00013870587419     0.00000000000000     0.50000000000000     0.00586032318469     0.49413967681531
                 169     0.00000000000000     0.00003468609088     0.00000000000000     0.50000000000000     0.00000000000000     0.50000000000000
                 170    -0.00576068850639     0.00006940588562     0.00000000000000     0.50000000000000     0.00583009439200     0.49416990560800
                 171     0.00000000000000    -0.00013875398918     0.00000000000000     0.50000000000000     0.00000000000000     0.50000000000000
                 172    -0.00575669302261     0.00006935774726     0.00000000000000     0.50000000000000     0.00582605076987     0.49417394923013
                 173     0.00000000000000     0.00003468127905     0.00000000000000     0.50000000000000     0.00000000000000     0.50000000000000
                 174    -0.00579016711740     0.00006934331877     0.00000000000000     0.50000000000000     0.00585951043617     0.49414048956383
                 175     0.00000000000000    -0.00003468609088     0.00000000000000     0.50000000000000     0.00000000000000     0.50000000000000
                 176    -0.00579579371139     0.00006941070313     0.00000000000000     0.50000000000000     0.00586520441452     0.49413479558548
                 177     0.00000000000000    -0.00010405827263     0.00000000000000     0.50000000000000     0.00000000000000     0.50000000000000
                 178    -0.00575669302261     0.00013871549452     0.00000000000000     0.50000000000000     0.00582605076987     0.49417394923013
                 179     0.00000000000000     0.00010411605470     0.00000000000000     0.50000000000000     0.00000000000000     0.50000000000000
                 180    -0.00578615480563    -0.00006929526713     0.00000000000000     0.50000000000000     0.00585545007276     0.49414454992724
                 181     0.00000000000000    -0.00006937699459     0.00000000000000     0.50000000000000     0.00000000000000     0.50000000000000
                 182    -0.00569128262077    -0.00006940588562     0.00000000000000     0.50000000000000     0.00576068850639     0.49423931149361
                 183     0.00000000000000     0.00013876361618    -0.00003469090404     0.49996530909595     0.00003469090404     0.50000000000000
                 184    -0.00575589459085    -0.00006934812760     0.00000000000000     0.50000000000000     0.00582524271845     0.49417475728155
                 185     0.00000000000000    -0.00010404383714     0.00000000000000     0.50000000000000     0.00000000000000     0.50000000000000
                 186    -0.00572122052705    -0.00003467406380     0.00000000000000     0.50000000000000     0.00579056865465     0.49420943134535
                 187     0.00000000000000    -0.00006940588562     0.00000000000000     0.50000000000000     0.00000000000000     0.50000000000000
                 188    -0.00572320499480    -0.00006937218176     0.00000000000000     0.50000000000000     0.00579257717655     0.49420742282345
                 189     0.00000000000000     0.00003467646855     0.00000000000000     0.50000000000000     0.00000000000000     0.50000000000000
                 190    -0.00579297904815     0.00003468849729     0.00000000000000     0.50000000000000     0.00586235604274     0.49413764395726
                 191     0.00000000000000     0.00010398613518     0.00000000000000     0.50000000000000     0.00000000000000     0.50000000000000
                 192    -0.00575908964752     0.00020815986678     0.00000000000000     0.50000000000000     0.00582847626978     0.49417152373022
                 193     0.00000000000000    -0.00003469090404     0.00000000000000     0.50000000000000     0.00000000000000     0.50000000000000
                 194    -0.00575749167592    -0.00013873473918     0.00000000000000     0.50000000000000     0.00582685904550     0.49417314095450
                 195     0.00000000000000     0.00010404383714     0.00000000000000     0.50000000000000     0.00000000000000     0.50000000000000
                 196    -0.00569009784193     0.00010408715564     0.00000000000000     0.50000000000000     0.00575948927902     0.49424051072098
                 197     0.00000000000000    -0.00017343045439     0.00000000000000     0.50000000000000     0.00000000000000     0.50000000000000
                 198    -0.00579016711740     0.00006934331877     0.00000000000000     0.50000000000000     0.00585951043617     0.49414048956383
                 199     0.00000000000000     0.00027746947836     0.00000000000000     0.50000000000000     0.00000000000000     0.50000000000000
                 200    -0.00572439633639     0.00003469331113     0.00000000000000     0.50000000000000     0.00579378295865     0.49420621704135
                 201     0.00006935293710    -0.00024273527984     0.00027741174839     0.49916776475484     0.00138705874194     0.49944517650323
                 202    -0.00503122831367    -0.00020818875781    -0.00010409437890     0.49920194309507     0.00617626648161     0.49462179042332
                 203     0.00020808767427     0.00006936255809    -0.00010404383714     0.49927169314004     0.00100575709232     0.49972254976764
                 204    -0.00547926203357     0.00003467887363     0.00031210986267     0.49934110140103     0.00655430711610     0.49410459148287
                 205     0.00000000000000    -0.00010402940565     0.00000000000000     0.50000000000000     0.00000000000000     0.50000000000000
                 206    -0.00575869007146    -0.00003469090404     0.00000000000000     0.50000000000000     0.00582807187955     0.49417192812045
                 207     0.00000000000000     0.00010405827263     0.00000000000000     0.50000000000000     0.00000000000000     0.50000000000000
                 208    -0.00565540212338    -0.00020817431129     0.00000000000000     0.50000000000000     0.00572479356047     0.49427520643953
                 209     0.00000000000000    -0.00006937699459     0.00000000000000     0.50000000000000     0.00000000000000     0.50000000000000
                 210    -0.00572161731049     0.00000000000000     0.00000000000000     0.50000000000000     0.00579097024759     0.49420902975241
                 211     0.00000000000000     0.00003469571855     0.00000000000000     0.50000000000000     0.00000000000000     0.50000000000000
                 212    -0.00582483877678    -0.00003467165939     0.00000000000000     0.50000000000000     0.00582483877678     0.49417516122322
                 213     0.00000000000000     0.00024270161570     0.00000000000000     0.50000000000000     0.00000000000000     0.50000000000000
                 214    -0.00569207274747     0.00006941552131     0.00000000000000     0.50000000000000     0.00576148826878     0.49423851173122
                 215     0.00000000000000    -0.00013871549452     0.00000000000000     0.50000000000000     0.00000000000000     0.50000000000000
                 216    -0.00579257717655    -0.00006937218176     0.00000000000000     0.50000000000000     0.00586194935831     0.49413805064169
                 217     0.00000000000000     0.00010397171969     0.00000000000000     0.50000000000000     0.00000000000000     0.50000000000000
                 218    -0.00579378295865    -0.00010407993339     0.00000000000000     0.50000000000000     0.00586316958090     0.49413683041910
                 219     0.00000000000000     0.00003471498993     0.00000000000000     0.50000000000000     0.00000000000000     0.50000000000000
                 220    -0.00575589459085     0.00013869625520     0.00000000000000     0.50000000000000     0.00582524271845     0.49417475728155
                 221     0.00000000000000    -0.00000000000000     0.00000000000000     0.50000000000000     0.00000000000000     0.50000000000000
                 222    -0.00575789108567     0.00003468609088     0.00000000000000     0.50000000000000     0.00582726326743     0.49417273673257
                 223     0.00000000000000     0.00006939625260     0.00000000000000     0.50000000000000     0.00000000000000     0.50000000000000
                 224    -0.00575310182297    -0.00003465723990     0.00000000000000     0.50000000000000     0.00582241630277     0.49417758369723
                 225     0.00000000000000     0.00010411605470     0.00000000000000     0.50000000000000     0.00000000000000     0.50000000000000
                 226    -0.00572280799112     0.00003468368479     0.00000000000000     0.50000000000000     0.00579217536071     0.49420782463929
                 227     0.00000000000000     0.00010404383714     0.00000000000000     0.50000000000000     0.00000000000000     0.50000000000000
                 228    -0.00572280799112    -0.00010405105438     0.00000000000000     0.50000000000000     0.00579217536071     0.49420782463929
                 229     0.00000000000000    -0.00003467646855     0.00000000000000     0.50000000000000     0.00000000000000     0.50000000000000
                 230    -0.00575669302261     0.00006935774726     0.00000000000000     0.50000000000000     0.00582605076987     0.49417394923013
                 231     0.00000000000000     0.00003470053439     0.00000000000000     0.50000000000000     0.00000000000000     0.50000000000000
                 232    -0.00579338097551    -0.00006938180809     0.00000000000000     0.50000000000000     0.00586276278360     0.49413723721640
                 233     0.00104022191401     0.00024271844660     0.00079750346741     0.49303051317614     0.00967406380028     0.49729542302358
                 234    -0.00340018041774     0.00000000000000     0.00052043577822     0.49427520643953     0.01169245715079     0.49403233640969
                 235    -0.00045082535719     0.00020807324178    -0.00010403662089     0.48435982799279     0.02233319461784     0.49330697738937
                 236    -0.00183759794744     0.00013868663754     0.00013868663754     0.48509118646418     0.02208584702864     0.49282296650718
                 237     0.00031208821694    -0.00169914695887    -0.00114432346210     0.46591303141688     0.04494070323878     0.48914626534434
                 238    -0.00048604360505     0.00024302180253    -0.00017358700181     0.46927510068046     0.04405638105819     0.48666851826135
                 239     0.00020810210877    -0.00083240843507    -0.00013873473918     0.45692286348502     0.05695061043285     0.48612652608213
                 240    -0.00052007489078     0.00093613480341     0.00038138825324     0.45690312738368     0.05817904444907     0.48491782816726
                 241     0.00093645948946     0.00065899001110    -0.00020810210877     0.46288845726970     0.05282325194229     0.48428829078801
                 242    -0.00065885290242     0.00048547055968    -0.00090158818226     0.46026076704348     0.05308967334767     0.48664955960885
                 243     0.00124852604564    -0.00052021918568     0.00006936255809     0.48238191024485     0.02517860858708     0.49243948116807
                 244    -0.00121477162293     0.00034707760655     0.00038178536721     0.48101485492156     0.02707205331112     0.49191309176732
                 245     0.00065876152833    -0.00010401497816    -0.00017335829693     0.49046529366895     0.01352194716039     0.49601275917065
                 246    -0.00305237599723     0.00041623309053     0.00058966354492     0.49087755809920     0.01543531044051     0.49368713146028
                 247     0.00024280263614    -0.00055497745404    -0.00104058272633     0.47405480402359     0.03430454387790     0.49164065209851
                 248    -0.00274001109878     0.00069367369589     0.00024278579356     0.47443812430633     0.03565482796892     0.48990704772475
                 249     0.00006932409012    -0.00038128249567    -0.00006932409012     0.49258232235702     0.01081455805893     0.49660311958406
                 250    -0.00371192673281    -0.00041629084854    -0.00000000000000     0.49229861930202     0.01439672517866     0.49330465551932
                 251    -0.00058962264151    -0.00083240843507     0.00038152053274     0.48803412874584     0.01664816870144     0.49531770255272
                 252    -0.00298486741635     0.00090240177704    -0.00048590864917     0.48833819241983     0.01971400805220     0.49194779952797
                 253     0.00045107564192    -0.00024288688411    -0.00027758501041     0.49354614850798     0.00988896599584     0.49656488549618
                 254    -0.00426343154246    -0.00072790294627    -0.00051993067591     0.49317157712305     0.01337954939341     0.49344887348354
                 255     0.00052025527192    -0.00079772475028     0.00034683684795     0.48862375138735     0.01591981132075     0.49545643729190
                 256    -0.00197655870726     0.00017338234274     0.00017338234274     0.48970108884111     0.01719952840003     0.49309938275886
                 257    -0.00069396252602    -0.00149201943095    -0.00024288688411     0.47317834836919     0.03723108952117     0.48959056210965
                 258    -0.00086733277824     0.00020815986678     0.00038162642243     0.47311268387455     0.03670552317513     0.49018179295032
                 259    -0.00024297119056     0.00006942034016    -0.00000000000000     0.48889274557445     0.01641791044776     0.49468934397779
                 260    -0.00218295218295     0.00000000000000    -0.00031185031185     0.48679833679834     0.01940401940402     0.49379764379764
                 261     0.00041631973356     0.00038162642243    -0.00024285317791     0.49760616153206     0.00357341104635     0.49882042742159
                 262    -0.00481769028144     0.00013863856925     0.00017329821156     0.49746984611119     0.00824899487037     0.49428115901844
                 263     0.00000000000000     0.00003469571855     0.00000000000000     0.50000000000000     0.00000000000000     0.50000000000000
                 264    -0.00572558817406     0.00013880213755     0.00000000000000     0.50000000000000     0.00579498924283     0.49420501075717
                 265     0.00000000000000     0.00006935774726     0.00000000000000     0.50000000000000     0.00000000000000     0.50000000000000
                 266    -0.00575749167592    -0.00013873473918     0.00000000000000     0.50000000000000     0.00582685904550     0.49417314095450
                 267     0.00000000000000    -0.00003468609088     0.00000000000000     0.50000000000000     0.00000000000000     0.50000000000000
                 268    -0.00568536365527     0.00010400055467     0.00000000000000     0.50000000000000     0.00575469735839     0.49424530264161
                 269     0.00000000000000    -0.00027754648904     0.00000000000000     0.50000000000000     0.00000000000000     0.50000000000000
                 270    -0.00569128262077    -0.00020821765686     0.00000000000000     0.50000000000000     0.00576068850639     0.49423931149361
                 271     0.00000000000000    -0.00003467165939     0.00000000000000     0.50000000000000     0.00000000000000     0.50000000000000
                 272    -0.00579257717655     0.00006937218176     0.00000000000000     0.50000000000000     0.00586194935831     0.49413805064169
                 273     0.00000000000000    -0.00006936736959     0.00000000000000     0.50000000000000     0.00000000000000     0.50000000000000
                 274    -0.00575549545801     0.00010401497816     0.00000000000000     0.50000000000000     0.00582483877678     0.49417516122322
                 275     0.00000000000000    -0.00003469571855     0.00000000000000     0.50000000000000     0.00000000000000     0.50000000000000
                 276    -0.00579378295865    -0.00003469331113     0.00000000000000     0.50000000000000     0.00586316958090     0.49413683041910
                 277     0.00000000000000    -0.00013877324452     0.00000000000000     0.50000000000000     0.00000000000000     0.50000000000000
                 278    -0.00575589459085    -0.00006934812760     0.00000000000000     0.50000000000000     0.00582524271845     0.49417475728155
                 279     0.00000000000000    -0.00010402940565     0.00000000000000     0.50000000000000     0.00000000000000     0.50000000000000
                 280    -0.00579137189624    -0.00003467887363     0.00000000000000     0.50000000000000     0.00586072964350     0.49413927035650
                 281     0.00000000000000     0.00013873473918     0.00000000000000     0.50000000000000     0.00000000000000     0.50000000000000
                 282    -0.00572598556358     0.00003470294281     0.00000000000000     0.50000000000000     0.00579539144919     0.49420460855081
                 283     0.00000000000000    -0.00020801553183     0.00000000000000     0.50000000000000     0.00000000000000     0.50000000000000
                 284    -0.00569049271339     0.00006939625260     0.00000000000000     0.50000000000000     0.00575988896600     0.49424011103400
                 285     0.00000000000000     0.00020807324178     0.00000000000000     0.50000000000000     0.00000000000000     0.50000000000000
                 286    -0.00582605076987     0.00020807324178     0.00000000000000     0.50000000000000     0.00589540851713     0.49410459148287
                 287     0.00000000000000    -0.00010405827263     0.00000000000000     0.50000000000000     0.00000000000000     0.50000000000000
                 288    -0.00579498924283    -0.00006940106878     0.00000000000000     0.50000000000000     0.00586439031161     0.49413560968839
                 289     0.00000000000000    -0.00000000000000     0.00000000000000     0.50000000000000     0.00000000000000     0.50000000000000
                 290    -0.00578976563583     0.00003466925530     0.00000000000000     0.50000000000000     0.00585910414644     0.49414089585356
                 291     0.00000000000000    -0.00010404383714     0.00000000000000     0.50000000000000     0.00000000000000     0.50000000000000
                 292    -0.00579097024759     0.00000000000000     0.00000000000000     0.50000000000000     0.00586032318469     0.49413967681531
                 293     0.00000000000000     0.00020821765686     0.00000000000000     0.50000000000000     0.00000000000000     0.50000000000000
                 294    -0.00575709232156    -0.00003468127905     0.00000000000000     0.50000000000000     0.00582645487966     0.49417354512034
                 295     0.00000000000000    -0.00006939625260     0.00000000000000     0.50000000000000     0.00000000000000     0.50000000000000
                 296    -0.00578976563583    -0.00003466925530     0.00000000000000     0.50000000000000     0.00585910414644     0.49414089585356
                 297     0.00000000000000    -0.00024266796090     0.00000000000000     0.50000000000000     0.00000000000000     0.50000000000000
                 298    -0.00568930826337     0.00003469090404     0.00000000000000     0.50000000000000     0.00575869007146     0.49424130992854
                 299     0.00000000000000     0.00027731558514     0.00000000000000     0.50000000000000     0.00000000000000     0.50000000000000
                 300    -0.00586194935831     0.00006937218176     0.00000000000000     0.50000000000000     0.00586194935831     0.49413805064169
 l=          50
                   1     0.00230783460744     0.00049979055093    -0.00086765668130     0.38777916638094     0.13695482443846     0.47526600918059
                   2    -0.00011445351089    -0.00147075669862    -0.00122432278212     0.40855822899993     0.12470878422161     0.46673298677846
                   3    -0.00057900397928     0.00065870984595    -0.00118570873869     0.39339388014101     0.13838898587788     0.46821713398112
                   4     0.00052709194884    -0.00090844676780     0.00013177178172     0.39512989101463     0.13625278568070     0.46861732330467
                   5     0.00002418957588     0.00108907735789     0.00013515956054     0.39235271327474     0.13928000139729     0.46836728532797
                   6     0.00051669309821     0.00044399395688    -0.00184463497454     0.39278410135129     0.13853114902513     0.46868474962359
                   7     0.00009017010571    -0.00116575689306    -0.00067654605562     0.38876447706024     0.14468841255299     0.46654711038677
                   8    -0.00157188942629    -0.00009712200099    -0.00146438761160     0.38996529609828     0.14400283191215     0.46603187198958
                   9    -0.00024287388301    -0.00065214087295    -0.00105814192266     0.38532375224134     0.14817530101673     0.46650094674194
                  10    -0.00045784629490    -0.00079429391816    -0.00138392859095     0.38560495758917     0.14765810182791     0.46673694058292
                  11    -0.00007275252831    -0.00039186744427    -0.00061728926245     0.40538176109513     0.12544902168321     0.46916921722166
                  12     0.00040227711797    -0.00011448863383     0.00037448158177     0.39832087630457     0.12920736089347     0.47247176280196
                  13    -0.00119719453687    -0.00017719671851    -0.00093683935145     0.41398755318302     0.11333338344007     0.47267906337691
                  14     0.00071806848025    -0.00101619113261     0.00048199548683     0.41449993036338     0.11379434618707     0.47170572344955
                  15    -0.00172065200049     0.00060364074679    -0.00126619802816     0.39909528822507     0.13048890261164     0.47041580916329
                  16    -0.00087061824275    -0.00089142171796    -0.00087059779098     0.40045914366248     0.12909540430478     0.47044545203274
                  17    -0.00014901695281     0.00032248827861    -0.00042992569525     0.41330300907769     0.11371308030845     0.47298391061386
                  18     0.00048541622084     0.00124124806960    -0.00006935846962     0.41384787675134     0.11300879911460     0.47314332413406
                  19     0.00018056833695    -0.00183688127967    -0.00126738451011     0.38877126588589     0.14442406540365     0.46680466871046
                  20    -0.00013870972383     0.00117899225707    -0.00005898703102     0.39338957935518     0.14078675902251     0.46582366162231
                  21    -0.00001386215177    -0.00100270536880    -0.00057924545879     0.38550933033905     0.14920921525915     0.46528145440179
                  22    -0.00197628073912    -0.00134525124935     0.00040221673410     0.38553501052190     0.14699393217062     0.46747105730748
                  23    -0.00166757487322    -0.00062060132235    -0.00049928487879     0.39087899792389     0.14267831044036     0.46644269163575
                  24     0.00064180675731     0.00011102292830     0.00027746850981     0.38989639210501     0.14371401830531     0.46638958958968
                  25     0.00052406286037    -0.00058993824348     0.00053786913609     0.39273817396335     0.14066288494573     0.46659894109092
                  26    -0.00017691135510     0.00302163580393     0.00183865164149     0.39345728636090     0.14049469296659     0.46604802067250
                  27     0.00037800934346     0.00170975964402    -0.00006244723260     0.39984882036762     0.13143671444268     0.46871446518970
                  28    -0.00170641664284     0.00082555305039    -0.00081161604870     0.39671592812634     0.13441003778393     0.46887403408973
                  29     0.00134204479521     0.00014907659580    -0.00258687811980     0.40161189689720     0.12833033886508     0.47005776423772
                  30    -0.00031889226114     0.00138998335105     0.00005201013130     0.40211640706702     0.12942649268450     0.46845710024848
                  31     0.00086756948488    -0.00127367630613    -0.00024982241388     0.38004851445082     0.15468342388063     0.46526806166855
                  32    -0.00114123424934    -0.00128699332673     0.00010401350881     0.38314464473535     0.15026977394714     0.46658558131751
                  33     0.00028439636009     0.00060002871876    -0.00106137946955     0.38433281316467     0.14752178503356     0.46814540180177
                  34     0.00056535610001     0.00140820549403     0.00226837074872     0.38484620855389     0.14734482827483     0.46780896317128
                  35    -0.00097127672858    -0.00191823999514     0.00012483792038     0.38371425105043     0.15107713374628     0.46520861520329
                  36     0.00202460736271    -0.00047144394152     0.00091875522598     0.38317378117524     0.14856781542879     0.46825840339597
                  37     0.00076651137081     0.00083582340413     0.00087054005256     0.39056333604709     0.14459534730618     0.46484131664674
                  38     0.00051354382417     0.00030881910940    -0.00087425195100     0.39011779411962     0.14276010906428     0.46712209681611
                  39    -0.00084024958156    -0.00340880210096     0.00018066617679     0.37802733989445     0.15775418253281     0.46421847757274
                  40     0.00004507652468     0.00396005760155    -0.00082529468112     0.37922581248396     0.15698560095400     0.46378858656204
                  41     0.00041260164356    -0.00176139604212    -0.00085645635444     0.39588564218166     0.13658617868396     0.46752817913439
                  42    -0.00219776471577     0.00002773828887     0.00149753228608     0.39390729787025     0.13747055441073     0.46862214771902
                  43     0.00072830759089     0.00058614946237    -0.00030522749427     0.38477250540009     0.14845977721678     0.46676771738313
                  44     0.00174253249213    -0.00197168106730    -0.00084697611178     0.38770100383255     0.14612202797728     0.46617696819016
                  45    -0.00232987472219     0.00007619329026    -0.00057203622620     0.37152230816167     0.16305415574350     0.46542353609482
                  46    -0.00220314445189     0.00194637638778     0.00006247589020     0.37338313085974     0.16262705701702     0.46398981212324
                  47     0.00104726038863    -0.00024275116509    -0.00123450177697     0.37800461445020     0.15951426833247     0.46248111721733
                  48    -0.00014224401728     0.00087067960371    -0.00053770684959     0.37909407979554     0.15674927628197     0.46415664392249
                  49    -0.00020464983575     0.00110355144997    -0.00037829868537     0.36691452610482     0.17193907044942     0.46114640344575
                  50     0.00051687113310    -0.00100945068432     0.00106843797758     0.37032253558613     0.16841359825611     0.46126386615777
                  51     0.00070074086258    -0.00020819790423    -0.00083952132905     0.36460636768201     0.17456021321003     0.46083341910796
                  52    -0.00004163988381     0.00183052469150     0.00122034987151     0.36102686110899     0.17743463465714     0.46153850423387
                  53    -0.00083246330117    -0.00236572282777    -0.00052033709840     0.38626813368615     0.14801653571302     0.46571533060082
                  54     0.00109234773491     0.00252415650269     0.00007628005957     0.38698409037809     0.15003713859359     0.46297877102832
                  55    -0.00050307371525    -0.00050998421211    -0.00071814913557     0.38727180237898     0.14625904940593     0.46646914821510
                  56    -0.00153918321880     0.00115786155021    -0.00044028896678     0.38922133338645     0.14443347314862     0.46634519346493
                  57     0.00180375687077     0.00316006990684     0.00199451015001     0.36382027253546     0.17684045975212     0.45933926771242
                  58    -0.00000690040728    -0.00018040905535     0.00138043977434     0.36702273067093     0.17437571890818     0.45860155042089
                  59    -0.00065588201075     0.00016658110957     0.00088489181405     0.36600583486602     0.17330586010219     0.46068830503179
                  60     0.00019773309845     0.00058623994948     0.00142927201858     0.36431773318460     0.17707665047477     0.45860561634062
                  61     0.00104000252095     0.00047855768202     0.00000686459411     0.37751158105570     0.16050938787522     0.46197903106908
                  62    -0.00035722803589    -0.00274705673475     0.00134239626755     0.37140171366697     0.16382695696668     0.46477132936635
                  63     0.00012834671546     0.00159545792542     0.00058961229983     0.38163393820876     0.15417622330954     0.46418983848170
                  64    -0.00030540757823     0.00099255017904    -0.00066632420651     0.38127793713873     0.15436989758005     0.46435216528122
                  65    -0.00235052266369    -0.00109216402885    -0.00105057054238     0.39345183023386     0.13924304048972     0.46730512927642
                  66     0.00062779322449     0.00268805824871     0.00144633517073     0.38530059210460     0.14488565329243     0.46981375460297
                  67     0.00102633930508     0.00025657893551     0.00059292336628     0.41249367269908     0.11550890457228     0.47199742272863
                  68    -0.00070760347956     0.00048907773157     0.00142220288743     0.40972859022494     0.11782738862803     0.47244402114703
                  69     0.00102711014772    -0.00045093194347    -0.00023936099920     0.40683295822338     0.12154058888342     0.47162645289321
                  70     0.00057256733626     0.00081176051066    -0.00065946116027     0.40584009743927     0.12235801061894     0.47180189194180
                  71     0.00107814199047    -0.00165366918359    -0.00161553323663     0.42242635442836     0.10269077574186     0.47488286982978
                  72    -0.00063477279143    -0.00075274617180    -0.00168926823860     0.42086676335413     0.10302968052821     0.47610355611765
                  73    -0.00036744795793     0.00127950790546     0.00031907450025     0.42578194745258     0.09674066935167     0.47747738319576
                  74    -0.00023238020961     0.00098160339772    -0.00022890631105     0.42720197020705     0.09778899748363     0.47500903230932
                  75     0.00005896057201     0.00103405074967     0.00092324498780     0.40953396797316     0.11836709435777     0.47209893766907
                  76     0.00003823869981    -0.00116561248675     0.00076655322928     0.40937346463626     0.11835381590792     0.47227271945582
                  77    -0.00012134551363     0.00055831279080    -0.00191763853745     0.41666140122351     0.10908605039493     0.47425254838156
                  78     0.00114092484249    -0.00031557750913     0.00034331652099     0.41877802443401     0.10765093283381     0.47357104273218
                  79     0.00007981387638    -0.00029491360813    -0.00012490723497     0.40119353421344     0.12742697346198     0.47137949232458
                  80    -0.00014546672520     0.00021485448079    -0.00045053380397     0.40347535193742     0.12637759708443     0.47014705097815
                  81    -0.00128441175776    -0.00073600841454     0.00179481515187     0.40403825634139     0.12642727247306     0.46953447118554
                  82    -0.00003447646115     0.00080481237381    -0.00030513749061     0.40427903257833     0.12603229713380     0.46968867028788
                  83    -0.00033634274491    -0.00039182798636     0.00134201782948     0.40791083786656     0.12129199620956     0.47079716592388
                  84    -0.00023245576693     0.00002442029835    -0.00126946164825     0.40315799320380     0.12455222374118     0.47228978305502
                  85     0.00067982212124    -0.00131807074204    -0.00010749512403     0.42784592053589     0.09743900198119     0.47471507748293
                  86     0.00083905127464     0.00168850020286    -0.00130016126689     0.42213889141447     0.09957914615471     0.47828196243082
                  87     0.00041983550838    -0.00015610595222     0.00019784191234     0.44911522957340     0.06935202184622     0.48153274858038
                  88     0.00006245949987    -0.00053425437599     0.00029839379077     0.44663757438865     0.07146675372393     0.48189567188742
                  89    -0.00040594569284    -0.00075983071585    -0.00111368996712     0.45262439550032     0.06322751040342     0.48414809409626
                  90    -0.00038838920161    -0.00027049762357    -0.00022198543825     0.45396952530563     0.06299460912504     0.48303586556933
                  91     0.00026696626612     0.00178185723397     0.00021838289512     0.43999695982050     0.07948870564792     0.48051433453158
                  92     0.00063814998051     0.00006589106124    -0.00103702463288     0.44077489069448     0.07979802535560     0.47942708394992
                  93     0.00009003736620     0.00162631800677    -0.00039534927027     0.42637306042163     0.09622262676133     0.47740431281704
                  94    -0.00008674699570    -0.00229422683780     0.00096142521193     0.42865669187494     0.09407388397807     0.47726942414698
                  95    -0.00027418476875     0.00036093056578    -0.00084302582649     0.42004955291306     0.10352460183819     0.47642584524874
                  96    -0.00068347435933    -0.00211280559643    -0.00057249956674     0.42285290728853     0.10308709768330     0.47405999502817
                  97    -0.00042312893349    -0.00075269900572    -0.00045433703366     0.42189598929601     0.10336752486618     0.47473648583781
                  98    -0.00023224842127     0.00083900176167    -0.00065525421590     0.42046681177803     0.10443789339506     0.47509529482691
                  99     0.00092282289221     0.00158201052277     0.00018741871611     0.43231754895400     0.09127945412395     0.47640299692205
                 100     0.00055122506096     0.00052693299719    -0.00034312369460     0.42961164730532     0.09309741930241     0.47729093339227
                 101    -0.00048213137038     0.00086022180145     0.00001387010731     0.44385595441645     0.07708442872255     0.47905961686100
                 102     0.00059653387983    -0.00118962248988     0.00049254225119     0.44071117087172     0.07722738506860     0.48206144405968
                 103     0.00020099393790     0.00011096781823    -0.00005201903007     0.45250612026285     0.06520311887721     0.48229076085994
                 104     0.00012836115556     0.00051350867231     0.00061762568727     0.45172211033074     0.06536634688025     0.48291154278901
                 105     0.00055157143399     0.00099562152093    -0.00032604951222     0.44824246893330     0.07049355799582     0.48126397307088
                 106     0.00063818943570    -0.00158479599555    -0.00011443860816     0.44817297140173     0.06961720648109     0.48220982211719
                 107    -0.00024291917203     0.00111038128801    -0.00027760067982     0.44192621204646     0.07543773690808     0.48263605104546
                 108     0.00033292539079    -0.00071782459113     0.00071425350563     0.44228580966818     0.07597668554518     0.48173750478664
                 109    -0.00059984784292    -0.00042650181081     0.00168166854415     0.45925423510690     0.05528469614610     0.48546106874700
                 110    -0.00064501382741    -0.00050975323141     0.00030520848442     0.45967592456191     0.05492365026448     0.48540042517361
                 111     0.00090855071105     0.00012150211463     0.00089130459979     0.44782937943671     0.06887295659984     0.48329766396345
                 112    -0.00000342774408    -0.00068656644377     0.00080092521498     0.45016349719237     0.06786344271238     0.48197306009525
                 113     0.00174565344549    -0.00102378741207    -0.00012489158260     0.43758198663918     0.08294518034008     0.47947283302073
                 114    -0.00045439501295    -0.00105448243586     0.00062438934448     0.43713821896096     0.08303985562445     0.47982192541459
                 115     0.00025667105849     0.00118273434955    -0.00011444196614     0.45270935006495     0.06451435931252     0.48277629062253
                 116     0.00080799107099    -0.00101613647236     0.00056872968738     0.45137298108006     0.06531812627643     0.48330889264351
                 117     0.00001060158319     0.00015258844928     0.00105468511080     0.44606682283388     0.07222205021201     0.48171112695411
                 118    -0.00002424516729    -0.00082159838668    -0.00031200719193     0.44632089279253     0.07235901440025     0.48132009280722
                 119     0.00080829834489     0.00013186321108    -0.00092622891689     0.43590050986730     0.08528560771207     0.47881388242063
                 120     0.00025326115851    -0.00054836819411     0.00023599759198     0.43700254347468     0.08395617020550     0.47904128631982
                 121    -0.00041603101670     0.00096751758302     0.00036759003245     0.43844854627992     0.08214262332978     0.47940883039030
                 122    -0.00061369922361    -0.00056523610912     0.00041262525782     0.43844229408989     0.08211622533596     0.47944148057416
                 123    -0.00008325021722    -0.00107517019657    -0.00082888763958     0.45429925684417     0.06370772927895     0.48199301387688
                 124    -0.00054437969364     0.00075247122246    -0.00057563999580     0.45086184456445     0.06573830239412     0.48339985304142
                 125     0.00096481770002     0.00095444945369     0.00017695971633     0.45512169169897     0.06179404882713     0.48308425947390
                 126    -0.00129049924116    -0.00076664925152     0.00037466417421     0.45445667218609     0.06146688487521     0.48407644293870
                 127    -0.00032589269675     0.00080771484083    -0.00024615964783     0.46331003797623     0.05034253378814     0.48634742823563
                 128    -0.00020122580280    -0.00013527768427     0.00048218072808     0.46191088547083     0.05059237302848     0.48749674150069
                 129     0.00053043410191     0.00003465291235     0.00019061672277     0.46582599610474     0.04667935888494     0.48749464501032
                 130    -0.00107885784622    -0.00013521464692    -0.00102318684560     0.46724171616769     0.04578182137168     0.48697646246063
                 131    -0.00047860574107    -0.00021504222195    -0.00023235808026     0.45005914964987     0.06711375708368     0.48282709326645
                 132    -0.00089901367257    -0.00010067924787     0.00061102478341     0.44955728607857     0.06728122909625     0.48316148482518
                 133     0.00044052299714    -0.00031222223836     0.00031571249602     0.46694641760607     0.04621032751522     0.48684325487871
                 134    -0.00034327756207     0.00062078771401     0.00109240477830     0.46594799838615     0.04536106139037     0.48869094022349
                 135     0.00064862343386    -0.00020815360886    -0.00011444029079     0.47817736338482     0.03189277518218     0.48992986143300
                 136    -0.00101235837023     0.00019067393114     0.00044727571346     0.47460415569771     0.03444471597738     0.49095112832491
                 137     0.00057235010612     0.00037464155510     0.00003816986670     0.49362769498861     0.00947694772971     0.49689535728168
                 138    -0.00319814281903    -0.00014913287308    -0.00033991984894     0.49288259536586     0.01283368361775     0.49428372101639
                 139     0.00015953172067    -0.00037809427565     0.00024626234823     0.49507813865392     0.00712785177287     0.49779400957321
                 140    -0.00381915187688    -0.00005896491121    -0.00038845534470     0.49526882869340     0.01027076438336     0.49446040692324
                 141     0.00063816056194     0.00007629545206    -0.00008321485241     0.48519003652386     0.02101840426987     0.49379155920628
                 142    -0.00192489053306    -0.00008321582839     0.00014216101502     0.48586927442298     0.02149291627120     0.49263780930582
                 143     0.00081868849649    -0.00050994859290     0.00070420851164     0.48521152353820     0.02101193517786     0.49377654128394
                 144    -0.00237292042796     0.00035732136791     0.00017692577771     0.48569041431756     0.02165703206411     0.49265255361833
                 145     0.00096092940877     0.00035040799000    -0.00032611184012     0.48557578881052     0.02093562284643     0.49348858834305
                 146    -0.00278443558310     0.00001729326105     0.00019769291519     0.48477180126977     0.02313840814462     0.49208979058561
                 147     0.00036421382132    -0.00017342034730     0.00051337652617     0.48837289576836     0.01606360855264     0.49556349567900
                 148    -0.00342570281615     0.00046806884335     0.00042298703226     0.48775412713191     0.02003323293209     0.49221263993600
                 149    -0.00014916751326    -0.00001386649017    -0.00006246024017     0.49426856026073     0.00816349647095     0.49756794326832
                 150    -0.00421657133047    -0.00007630242152    -0.00002426246504     0.49389967701296     0.01227983258500     0.49382049040204
                 151    -0.00003123120338     0.00018739083188     0.00002082080225     0.49682143586621     0.00452841275421     0.49865015137958
                 152    -0.00523287992829     0.00029475599537    -0.00015604410847     0.49657049726056     0.00959864731853     0.49383085542091
                 153     0.00036757778186    -0.00020805881129    -0.00032596890570     0.49814826647817     0.00295445532301     0.49889727819882
                 154    -0.00471642591682     0.00000693769906     0.00002081309718     0.49799543217391     0.00728976383276     0.49471480399333
                 155    -0.00000693769946     0.00011100319134    -0.00024281948106     0.49882752879145     0.00160954627446     0.49956292493409
                 156    -0.00542565739263     0.00018733088184     0.00001387636162     0.49876500381600     0.00711857351003     0.49411642267397
                 157     0.00000000000000     0.00003466685156     0.00000000000000     0.50000000000000     0.00000000000000     0.50000000000000
                 158    -0.00572638300826    -0.00006941070313     0.00000000000000     0.50000000000000     0.00579579371139     0.49420420628861
                 159     0.00000000000000    -0.00006936736959     0.00000000000000     0.50000000000000     0.00000000000000     0.50000000000000
                 160    -0.00572161731049     0.00000000000000     0.00000000000000     0.50000000000000     0.00579097024759     0.49420902975241
                 161     0.00000000000000    -0.00000000000000     0.00000000000000     0.50000000000000     0.00000000000000     0.50000000000000
                 162    -0.00579137189624     0.00010403662089     0.00000000000000     0.50000000000000     0.00586072964350     0.49413927035650
                 163     0.00000000000000     0.00003466685156     0.00000000000000     0.50000000000000     0.00000000000000     0.50000000000000
                 164    -0.00579498924283     0.00000000000000     0.00000000000000     0.50000000000000     0.00586439031161     0.49413560968839
                 165     0.00000000000000    -0.00013183939713    -0.00002081598668     0.49993755203997     0.00006244796003     0.50000000000000
                 166    -0.00565904095373     0.00003467550665    -0.00004161176226     0.49995838823774     0.00581161549154     0.49422999627072
                 167     0.00000000000000    -0.00006935774726     0.00000000000000     0.50000000000000     0.00000000000000     0.50000000000000
                 168    -0.00579097024759     0.00013870587419     0.00000000000000     0.50000000000000     0.00586032318469     0.49413967681531
                 169     0.00007284584432     0.00013181556779    -0.00009712779242     0.49975718051894     0.00036422922159     0.49987859025947
                 170    -0.00554179528118     0.00011798326197    -0.00009716149629     0.49975709625928     0.00590268228387     0.49434022145685
                 171     0.00000000000000    -0.00013875398918     0.00000000000000     0.50000000000000     0.00000000000000     0.50000000000000
                 172    -0.00575669302261     0.00006935774726     0.00000000000000     0.50000000000000     0.00582605076987     0.49417394923013
                 173     0.00000000000000     0.00003468127905     0.00000000000000     0.50000000000000     0.00000000000000     0.50000000000000
                 174    -0.00579016711740     0.00006934331877     0.00000000000000     0.50000000000000     0.00585951043617     0.49414048956383
                 175     0.00000000000000    -0.00003468609088     0.00000000000000     0.50000000000000     0.00000000000000     0.50000000000000
                 176    -0.00579579371139     0.00006941070313     0.00000000000000     0.50000000000000     0.00586520441452     0.49413479558548
                 177     0.00000000000000    -0.00010405827263     0.00000000000000     0.50000000000000     0.00000000000000     0.50000000000000
                 178    -0.00575669302261     0.00013871549452     0.00000000000000     0.50000000000000     0.00582605076987     0.49417394923013
                 179     0.00000000000000     0.00010411605470     0.00000000000000     0.50000000000000     0.00000000000000     0.50000000000000
                 180    -0.00578615480563    -0.00006929526713     0.00000000000000     0.50000000000000     0.00585545007276     0.49414454992724
                 181     0.00000000000000    -0.00006937699459     0.00000000000000     0.50000000000000     0.00000000000000     0.50000000000000
                 182    -0.00569128262077    -0.00006940588562     0.00000000000000     0.50000000000000     0.00576068850639     0.49423931149361
                 183     0.00000000000000     0.00013876361618    -0.00003469090404     0.49996530909595     0.00003469090404     0.50000000000000
                 184    -0.00575589459085    -0.00006934812760     0.00000000000000     0.50000000000000     0.00582524271845     0.49417475728155
                 185     0.00000000000000    -0.00010404383714     0.00000000000000     0.50000000000000     0.00000000000000     0.50000000000000
                 186    -0.00572122052705    -0.00003467406380     0.00000000000000     0.50000000000000     0.00579056865465     0.49420943134535
                 187     0.00000000000000    -0.00006940588562     0.00000000000000     0.50000000000000     0.00000000000000     0.50000000000000
                 188    -0.00572320499480    -0.00006937218176     0.00000000000000     0.50000000000000     0.00579257717655     0.49420742282345
                 189     0.00000000000000     0.00003467646855     0.00000000000000     0.50000000000000     0.00000000000000     0.50000000000000
                 190    -0.00579297904815     0.00003468849729     0.00000000000000     0.50000000000000     0.00586235604274     0.49413764395726
                 191     0.00000000000000     0.00010398613518     0.00000000000000     0.50000000000000     0.00000000000000     0.50000000000000
                 192    -0.00575908964752     0.00020815986678     0.00000000000000     0.50000000000000     0.00582847626978     0.49417152373022
                 193     0.00000000000000    -0.00003469090404     0.00000000000000     0.50000000000000     0.00000000000000     0.50000000000000
                 194    -0.00575749167592    -0.00013873473918     0.00000000000000     0.50000000000000     0.00582685904550     0.49417314095450
                 195     0.00000000000000     0.00010404383714     0.00000000000000     0.50000000000000     0.00000000000000     0.50000000000000
                 196    -0.00569009784193     0.00010408715564     0.00000000000000     0.50000000000000     0.00575948927902     0.49424051072098
                 197     0.00000000000000    -0.00017343045439     0.00000000000000     0.50000000000000     0.00000000000000     0.50000000000000
                 198    -0.00579016711740     0.00006934331877     0.00000000000000     0.50000000000000     0.00585951043617     0.49414048956383
                 199     0.00000000000000     0.00027746947836     0.00000000000000     0.50000000000000     0.00000000000000     0.50000000000000
                 200    -0.00572439633639     0.00003469331113     0.00000000000000     0.50000000000000     0.00579378295865     0.49420621704135
                 201     0.00006935293710    -0.00024273527984     0.00027741174839     0.49916776475484     0.00138705874194     0.49944517650323
                 202    -0.00503122831367    -0.00020818875781    -0.00010409437890     0.49920194309507     0.00617626648161     0.49462179042332
                 203     0.00020808767427     0.00006936255809    -0.00010404383714     0.49927169314004     0.00100575709232     0.49972254976764
                 204    -0.00547926203357     0.00003467887363     0.00031210986267     0.49934110140103     0.00655430711610     0.49410459148287
                 205     0.00000000000000    -0.00010402940565     0.00000000000000     0.50000000000000     0.00000000000000     0.50000000000000
                 206    -0.00575869007146    -0.00003469090404     0.00000000000000     0.50000000000000     0.00582807187955     0.49417192812045
                 207     0.00000000000000     0.00010405827263     0.00000000000000     0.50000000000000     0.00000000000000     0.50000000000000
                 208    -0.00565540212338    -0.00020817431129     0.00000000000000     0.50000000000000     0.00572479356047     0.49427520643953
                 209     0.00000000000000    -0.00006937699459     0.00000000000000     0.50000000000000     0.00000000000000     0.50000000000000
                 210    -0.00572161731049     0.00000000000000     0.00000000000000     0.50000000000000     0.00579097024759     0.49420902975241
                 211     0.00000000000000     0.00003469571855     0.00000000000000     0.50000000000000     0.00000000000000     0.50000000000000
                 212    -0.00582483877678    -0.00003467165939     0.00000000000000     0.50000000000000     0.00582483877678     0.49417516122322
                 213     0.00000000000000     0.00024270161570     0.00000000000000     0.50000000000000     0.00000000000000     0.50000000000000
                 214    -0.00569207274747     0.00006941552131     0.00000000000000     0.50000000000000     0.00576148826878     0.49423851173122
                 215     0.00000000000000    -0.00013871549452     0.00000000000000     0.50000000000000     0.00000000000000     0.50000000000000
                 216    -0.00579257717655    -0.00006937218176     0.00000000000000     0.50000000000000     0.00586194935831     0.49413805064169
                 217     0.00000000000000     0.00010397171969     0.00000000000000     0.50000000000000     0.00000000000000     0.50000000000000
                 218    -0.00579378295865    -0.00010407993339     0.00000000000000     0.50000000000000     0.00586316958090     0.49413683041910
                 219     0.00000000000000     0.00003471498993     0.00000000000000     0.50000000000000     0.00000000000000     0.50000000000000
                 220    -0.00575589459085     0.00013869625520     0.00000000000000     0.50000000000000     0.00582524271845     0.49417475728155
                 221     0.00000000000000    -0.00000000000000     0.00000000000000     0.50000000000000     0.00000000000000     0.50000000000000
                 222    -0.00575789108567     0.00003468609088     0.00000000000000     0.50000000000000     0.00582726326743     0.49417273673257
                 223     0.00000000000000     0.00006939625260     0.00000000000000     0.50000000000000     0.00000000000000     0.50000000000000
                 224    -0.00575310182297    -0.00003465723990     0.00000000000000     0.50000000000000     0.00582241630277     0.49417758369723
                 225     0.00000000000000     0.00010411605470     0.00000000000000     0.50000000000000     0.00000000000000     0.50000000000000
                 226    -0.00572280799112     0.00003468368479     0.00000000000000     0.50000000000000     0.00579217536071     0.49420782463929
                 227     0.00000000000000     0.00010404383714     0.00000000000000     0.50000000000000     0.00000000000000     0.50000000000000
                 228    -0.00572280799112    -0.00010405105438     0.00000000000000     0.50000000000000     0.00579217536071     0.49420782463929
                 229     0.00000000000000    -0.00003467646855     0.00000000000000     0.50000000000000     0.00000000000000     0.50000000000000
                 230    -0.00575669302261     0.00006935774726     0.00000000000000     0.50000000000000     0.00582605076987     0.49417394923013
                 231     0.00000000000000     0.00003470053439     0.00000000000000     0.50000000000000     0.00000000000000     0.50000000000000
                 232    -0.00579338097551    -0.00006938180809     0.00000000000000     0.50000000000000     0.00586276278360     0.49413723721640
                 233     0.00104022191401     0.00024271844660     0.00079750346741     0.49303051317614     0.00967406380028     0.49729542302358
                 234    -0.00340018041774     0.00000000000000     0.00052043577822     0.49427520643953     0.01169245715079     0.49403233640969
                 235    -0.00045082535719     0.00020807324178    -0.00010403662089     0.48435982799279     0.02233319461784     0.49330697738937
                 236    -0.00183759794744     0.00013868663754     0.00013868663754     0.48509118646418     0.02208584702864     0.49282296650718
                 237     0.00031208821694    -0.00169914695887    -0.00114432346210     0.46591303141688     0.04494070323878     0.48914626534434
                 238    -0.00048604360505     0.00024302180253    -0.00017358700181     0.46927510068046     0.04405638105819     0.48666851826135
                 239     0.00020810210877    -0.00083240843507    -0.00013873473918     0.45692286348502     0.05695061043285     0.48612652608213
                 240    -0.00052007489078     0.00093613480341     0.00038138825324     0.45690312738368     0.05817904444907     0.48491782816726
                 241     0.00093645948946     0.00065899001110    -0.00020810210877     0.46288845726970     0.05282325194229     0.48428829078801
                 242    -0.00065885290242     0.00048547055968    -0.00090158818226     0.46026076704348     0.05308967334767     0.48664955960885
                 243     0.00124852604564    -0.00052021918568     0.00006936255809     0.48238191024485     0.02517860858708     0.49243948116807
                 244    -0.00121477162293     0.00034707760655     0.00038178536721     0.48101485492156     0.02707205331112     0.49191309176732
                 245     0.00065876152833    -0.00010401497816    -0.00017335829693     0.49046529366895     0.01352194716039     0.49601275917065
                 246    -0.00305237599723     0.00041623309053     0.00058966354492     0.49087755809920     0.01543531044051     0.49368713146028
                 247     0.00024280263614    -0.00055497745404    -0.00104058272633     0.47405480402359     0.03430454387790     0.49164065209851
                 248    -0.00274001109878     0.00069367369589     0.00024278579356     0.47443812430633     0.03565482796892     0.48990704772475
                 249     0.00006932409012    -0.00038128249567    -0.00006932409012     0.49258232235702     0.01081455805893     0.49660311958406
                 250    -0.00371192673281    -0.00041629084854    -0.00000000000000     0.49229861930202     0.01439672517866     0.49330465551932
                 251    -0.00058962264151    -0.00083240843507     0.00038152053274     0.48803412874584     0.01664816870144     0.49531770255272
                 252    -0.00298486741635     0.00090240177704    -0.00048590864917     0.48833819241983     0.01971400805220     0.49194779952797
                 253     0.00045107564192    -0.00024288688411    -0.00027758501041     0.49354614850798     0.00988896599584     0.49656488549618
                 254    -0.00426343154246    -0.00072790294627    -0.00051993067591     0.49317157712305     0.01337954939341     0.49344887348354
                 255     0.00052025527192    -0.00079772475028     0.00034683684795     0.48862375138735     0.01591981132075     0.49545643729190
                 256    -0.00197655870726     0.00017338234274     0.00017338234274     0.48970108884111     0.01719952840003     0.49309938275886
                 257    -0.00069396252602    -0.00149201943095    -0.00024288688411     0.47317834836919     0.03723108952117     0.48959056210965
                 258    -0.00086733277824     0.00020815986678     0.00038162642243     0.47311268387455     0.03670552317513     0.49018179295032
                 259    -0.00024297119056     0.00006942034016    -0.00000000000000     0.48889274557445     0.01641791044776     0.49468934397779
                 260    -0.00218295218295     0.00000000000000    -0.00031185031185     0.48679833679834     0.01940401940402     0.49379764379764
                 261     0.00041631973356     0.00038162642243    -0.00024285317791     0.49760616153206     0.00357341104635     0.49882042742159
                 262    -0.00481769028144     0.00013863856925     0.00017329821156     0.49746984611119     0.00824899487037     0.49428115901844
                 263     0.00000000000000     0.00003469571855     0.00000000000000     0.50000000000000     0.00000000000000     0.50000000000000
                 264    -0.00572558817406     0.00013880213755     0.00000000000000     0.50000000000000     0.00579498924283     0.49420501075717
                 265     0.00000000000000     0.00006935774726     0.00000000000000     0.50000000000000     0.00000000000000     0.50000000000000
                 266    -0.00575749167592    -0.00013873473918     0.00000000000000     0.50000000000000     0.00582685904550     0.49417314095450
                 267     0.00000000000000    -0.00003468609088     0.00000000000000     0.50000000000000     0.00000000000000     0.50000000000000
                 268    -0.00568536365527     0.00010400055467     0.00000000000000     0.50000000000000     0.00575469735839     0.49424530264161
                 269     0.00000000000000    -0.00027754648904     0.00000000000000     0.50000000000000     0.00000000000000     0.50000000000000
                 270    -0.00569128262077    -0.00020821765686     0.00000000000000     0.50000000000000     0.00576068850639     0.49423931149361
                 271     0.00000000000000    -0.00003467165939     0.00000000000000     0.50000000000000     0.00000000000000     0.50000000000000
                 272    -0.00579257717655     0.00006937218176     0.00000000000000     0.50000000000000     0.00586194935831     0.49413805064169
                 273     0.00000000000000    -0.00006936736959     0.00000000000000     0.50000000000000     0.00000000000000     0.50000000000000
                 274    -0.00575549545801     0.00010401497816     0.00000000000000     0.50000000000000     0.00582483877678     0.49417516122322
                 275     0.00000000000000    -0.00003469571855     0.00000000000000     0.50000000000000     0.00000000000000     0.50000000000000
                 276    -0.00579378295865    -0.00003469331113     0.00000000000000     0.50000000000000     0.00586316958090     0.49413683041910
                 277     0.00000000000000    -0.00013877324452     0.00000000000000     0.50000000000000     0.00000000000000     0.50000000000000
                 278    -0.00575589459085    -0.00006934812760     0.00000000000000     0.50000000000000     0.00582524271845     0.49417475728155
                 279     0.00000000000000    -0.00010402940565     0.00000000000000     0.50000000000000     0.00000000000000     0.50000000000000
                 280    -0.00579137189624    -0.00003467887363     0.00000000000000     0.50000000000000     0.00586072964350     0.49413927035650
                 281     0.00000000000000     0.00013873473918     0.00000000000000     0.50000000000000     0.00000000000000     0.50000000000000
                 282    -0.00572598556358     0.00003470294281     0.00000000000000     0.50000000000000     0.00579539144919     0.49420460855081
                 283     0.00000000000000    -0.00020801553183     0.00000000000000     0.50000000000000     0.00000000000000     0.50000000000000
                 284    -0.00569049271339     0.00006939625260     0.00000000000000     0.50000000000000     0.00575988896600     0.49424011103400
                 285     0.00000000000000     0.00020807324178     0.00000000000000     0.50000000000000     0.00000000000000     0.50000000000000
                 286    -0.00582605076987     0.00020807324178     0.00000000000000     0.50000000000000     0.00589540851713     0.49410459148287
                 287     0.00000000000000    -0.00010405827263     0.00000000000000     0.50000000000000     0.00000000000000     0.50000000000000
                 288    -0.00579498924283    -0.00006940106878     0.00000000000000     0.50000000000000     0.00586439031161     0.49413560968839
                 289     0.00000000000000    -0.00000000000000     0.00000000000000     0.50000000000000     0.00000000000000     0.50000000000000
                 290    -0.00578976563583     0.00003466925530     0.00000000000000     0.50000000000000     0.00585910414644     0.49414089585356
                 291     0.00000000000000    -0.00010404383714     0.00000000000000     0.50000000000000     0.00000000000000     0.50000000000000
                 292    -0.00579097024759     0.00000000000000     0.00000000000000     0.50000000000000     0.00586032318469     0.49413967681531
                 293     0.00000000000000     0.00020821765686     0.00000000000000     0.50000000000000     0.00000000000000     0.50000000000000
                 294    -0.00575709232156    -0.00003468127905     0.00000000000000     0.50000000000000     0.00582645487966     0.49417354512034
                 295     0.00000000000000    -0.00006939625260     0.00000000000000     0.50000000000000     0.00000000000000     0.50000000000000
                 296    -0.00578976563583    -0.00003466925530     0.00000000000000     0.50000000000000     0.00585910414644     0.49414089585356
                 297     0.00000000000000    -0.00024266796090     0.00000000000000     0.50000000000000     0.00000000000000     0.50000000000000
                 298    -0.00568930826337     0.00003469090404     0.00000000000000     0.50000000000000     0.00575869007146     0.49424130992854
                 299     0.00000000000000     0.00027731558514     0.00000000000000     0.50000000000000     0.00000000000000     0.50000000000000
                 300    -0.00586194935831     0.00006937218176     0.00000000000000     0.50000000000000     0.00586194935831     0.49413805064169
